&GLOBAL
  PROJECT H2O_bulk
  RUN_TYPE ENERGY_FORCE
  PRINT_LEVEL LOW
&END GLOBAL
&FORCE_EVAL
  METHOD Quickstep
  &SUBSYS
    &KIND H
      ELEMENT   H
      BASIS_SET DZVP-GTH-PBE
      POTENTIAL GTH-PBE-q1
    &END KIND
    &KIND O
      ELEMENT   O
      BASIS_SET DZVP-GTH-PBE
      POTENTIAL GTH-PBE-q6
    &END KIND
    &CELL
      A     46.937    0.000000000    0.000000000
      B     0.000000000    44.121    0.000000000
      C     0.000000000    0.000000000    45.182
    &END CELL
    &COORD

O 1.84875 3.09758 6.80914
H 2.10423 2.81335 7.69348
H 1.67699 4.05274 6.76052
O 5.07459 1.88718 43.503
H 4.55 2.56467 43.1133
H 5.32826 1.31779 42.7889
O 5.43694 1.78356 1.11875
H 4.77417 1.27782 1.64246
H 5.22485 1.76109 0.152829
O 5.01912 4.8727 1.90067
H 5.81407 5.13515 2.32566
H 5.16849 3.87197 1.68175
O 1.35611 5.78692 5.9608
H 1.55921 5.73586 5.03878
H 0.488208 6.24683 5.90419
O 3.8866 6.11195 44.677
H 4.19323 5.65275 0.257086
H 4.64251 6.72711 44.4432
O 3.09107 3.95027 42.7699
H 3.05929 4.75596 43.3219
H 2.28056 3.6088 43.0414
O 2.58758 5.58331 3.12255
H 3.55402 5.28496 2.9922
H 2.48854 6.31763 2.5469
O 5.20638 10.6762 43.811
H 4.8174 11.1011 43.0099
H 4.89801 11.2463 44.5179
O 6.14889 7.94594 44.4014
H 6.8412 8.11257 45.0219
H 5.82444 8.81778 44.0888
O 12.2265 36.6578 27.6408
H 11.7891 35.8365 27.4419
H 11.475 37.1436 27.9962
O 1.89903 0.973694 4.80364
H 0.979195 0.811247 4.57366
H 1.92645 1.66377 5.48201
O 3.695 0.62662 2.8519
H 3.40223 43.9045 3.25077
H 3.19551 1.24059 3.40832
O 16.3317 42.2557 6.06885
H 16.7064 41.8588 6.84683
H 16.7699 43.1277 6.0569
O 7.6215 5.56464 2.82547
H 7.78564 6.33044 3.36933
H 7.99417 4.74036 3.20374
O 46.8614 13.265 2.35132
H 47.1688 13.5198 1.49165
H 47.3149 12.5096 2.47073
O 13.319 43.188 0.0279489
H 13.7096 42.5997 0.728138
H 13.548 42.77 44.3644
O 10.3075 1.32262 42.7183
H 10.8608 1.79542 42.0812
H 9.43173 1.58401 42.4569
O 15.7188 6.44518 4.31246
H 15.5433 7.07752 4.98143
H 14.85 6.00264 4.23346
O 13.3373 4.44736 3.97164
H 12.4772 4.56439 4.41774
H 13.2099 3.99372 3.12083
O 7.55723 1.93576 5.84551
H 6.7459 1.41799 5.6944
H 8.17383 1.23854 6.00414
O 8.82927 1.18146 1.70727
H 9.63637 0.91114 1.29502
H 8.16266 1.07821 1.04268
O 16.456 41.0071 3.73497
H 16.7392 41.5081 4.60503
H 17.2717 40.6419 3.39585
O 14.2828 2.17096 5.56195
H 14.2754 2.85776 4.87177
H 13.815 2.57538 6.32082
O 8.76105 3.17007 3.8789
H 8.19821 2.69781 4.5735
H 8.69347 2.63356 3.06482
O 13.0978 2.74326 1.75969
H 13.8847 2.46783 1.25657
H 12.3483 2.3301 1.36221
O 11.3311 1.15954 0.194409
H 11.062 1.40956 44.5198
H 11.9787 0.468078 -0.0578307
O 14.2643 41.1264 2.00484
H 13.4842 40.6731 2.28825
H 14.8857 41.2447 2.70951
O 17.2081 0.950054 6.42199
H 17.683 1.2068 5.63194
H 16.328 1.36786 6.3706
O 11.8979 43.6362 6.08879
H 12.3392 42.9801 5.52403
H 12.4719 0.293033 5.97056
O 10.7936 4.78348 5.31749
H 10.5444 4.94852 6.20649
H 10.0951 4.24364 4.9161
O 9.31558 44.0771 5.98709
H 10.276 44.1067 5.90341
H 9.21472 43.4276 6.66638
O 18.1145 2.31778 3.76902
H 18.1712 3.2581 4.05849
H 18.9192 2.13068 3.33027
O 18.2095 9.30733 0.940781
H 18.3418 9.09198 0.0380831
H 17.9017 8.46844 1.32088
O 24.4709 7.12307 2.64532
H 24.0726 6.77326 1.84958
H 25.0552 7.85045 2.3733
O 23.2578 6.44981 5.25664
H 23.2293 7.35335 5.09081
H 23.9564 6.26531 4.56902
O 20.612 0.410987 8.98577
H 20.4679 0.364239 9.92069
H 21.5607 0.298697 8.86946
O 20.2181 6.38907 6.14765
H 19.982 5.94769 6.94414
H 21.0799 6.14849 5.84279
O 16.3242 11.9097 1.13789
H 15.3962 11.747 1.20683
H 16.701 11.0029 1.03261
O 23.4116 43.8267 9.17267
H 24.29 44.1641 8.87319
H 23.6617 43.5964 10.0658
O 19.2992 5.15175 8.37799
H 19.2705 4.21557 8.18591
H 19.84 5.1477 9.17595
O 18.4105 5.06603 4.52142
H 17.5536 5.36788 4.84684
H 19.1209 5.64195 4.95551
O 17.9525 6.3762 1.76674
H 18.2709 6.26086 2.68025
H 17.0069 6.31654 1.91478
O 17.0034 14.2968 2.43655
H 16.6208 13.4752 2.11118
H 16.2895 14.9248 2.63887
O 28.5306 42.313 7.57422
H 28.5013 41.9246 6.67496
H 28.9791 41.6594 8.06017
O 26.2953 43.724 9.19782
H 26.8188 0.344961 9.57187
H 26.8676 43.2472 8.56032
O 24.7109 5.89486 8.24331
H 24.2233 6.69229 8.1979
H 24.5052 5.46284 7.4049
O 19.0506 2.58036 8.22111
H 18.4735 2.12004 7.55488
H 19.736 1.92357 8.38193
O 28.3398 41.2364 5.05392
H 27.8026 41.4878 4.28267
H 29.1297 40.9422 4.59486
O 23.234 7.71107 42.3065
H 22.3439 7.68835 41.8919
H 23.4994 8.6578 42.2278
O 23.7338 10.4324 42.5654
H 24.3946 10.8347 42.0743
H 23.3384 11.1327 43.0319
O 31.0496 7.50392 4.23965
H 30.5016 6.98206 4.85129
H 31.1167 6.85009 3.54037
O 30.1355 3.7842 7.90967
H 30.939 3.27606 7.88482
H 29.6288 3.56068 8.66248
O 29.7176 5.21747 5.38845
H 29.7394 4.87683 6.32947
H 28.7704 5.31623 5.37016
O 25.7651 43.4425 0.798935
H 25.2314 42.9529 45.3874
H 25.7512 44.3717 0.377578
O 32.7753 2.44065 7.73868
H 32.7572 1.49783 7.68197
H 33.4914 2.62656 8.37175
O 26.4388 4.53703 10.1734
H 26.2794 5.08559 9.41878
H 25.6303 4.63576 10.7315
O 23.3604 6.11483 0.344985
H 22.6523 6.55183 -0.138708
H 23.8317 5.68507 44.7644
O 23.9089 5.2076 42.9152
H 24.5613 4.69106 42.4827
H 24.0134 6.07482 42.4453
O 27.1056 41.5393 2.53068
H 26.9763 40.65 2.13263
H 26.4792 42.2244 2.08709
O 23.7336 41.7509 44.3591
H 23.0447 41.5272 44.9012
H 24.1895 40.9353 44.1844
O 28.9548 24.0263 37.5391
H 29.4573 23.2361 37.4523
H 28.3676 23.8184 38.2703
O 30.0837 9.67613 2.6108
H 30.3177 8.93163 3.23643
H 30.6572 9.52151 1.78435
O 27.8022 1.96186 10.1306
H 27.2869 2.79294 10.1997
H 28.0839 1.78264 10.9768
    
    &END COORD
  &END SUBSYS
  &DFT
    BASIS_SET_FILE_NAME  BASIS_SET
    POTENTIAL_FILE_NAME  GTH_POTENTIALS
    &QS
      EPS_DEFAULT 1.0E-10
    &END QS
    &MGRID
      NGRIDS 4
      CUTOFF 135
      REL_CUTOFF 115
    &END MGRID
    &XC
      &XC_FUNCTIONAL PADE
      &END XC_FUNCTIONAL
    &END XC
    &SCF
      SCF_GUESS ATOMIC
      EPS_SCF 1.0E-7
      MAX_SCF 300
      &DIAGONALIZATION  ON
        ALGORITHM STANDARD
      &END DIAGONALIZATION
      &MIXING  T
        METHOD BROYDEN_MIXING
        ALPHA 0.4
        NBROYDEN 8
      &END MIXING
    &END SCF
  &END DFT
  &PRINT
    &FORCES ON
    &END FORCES
  &END PRINT
&END FORCE_EVAL
