&GLOBAL
  PROJECT H2O_bulk
  RUN_TYPE ENERGY_FORCE
  PRINT_LEVEL LOW
&END GLOBAL
&FORCE_EVAL
  METHOD Quickstep
  &SUBSYS
    &KIND H
      ELEMENT   H
      BASIS_SET DZVP-GTH-PBE
      POTENTIAL GTH-PBE-q1
    &END KIND
    &KIND O
      ELEMENT   O
      BASIS_SET DZVP-GTH-PBE
      POTENTIAL GTH-PBE-q6
    &END KIND
    &CELL
      A     46.937    0.000000000    0.000000000
      B     0.000000000    44.121    0.000000000
      C     0.000000000    0.000000000    45.182
    &END CELL
    &COORD

O 3.41578 3.14835 7.0945
H 2.64981 3.40461 7.61374
H 3.92708 3.91962 6.86336
O 5.61448 1.17278 43.6254
H 5.30011 1.86811 43.0666
H 5.88397 0.421085 43.1682
O 5.96594 2.10597 0.905088
H 5.55745 1.62094 1.61587
H 5.89834 1.55316 45.2928
O 4.6656 4.41003 1.31517
H 5.0592 3.62686 0.986065
H 3.71731 4.37099 1.36666
O 5.19515 5.11543 5.93894
H 4.94842 5.43877 5.0184
H 5.76075 5.86879 6.24766
O 4.03955 5.15873 40.0537
H 3.76637 6.04454 40.3243
H 4.82811 5.34915 39.4549
O 4.03991 3.01014 41.9025
H 4.16885 3.69502 41.2583
H 3.14744 2.68884 41.7138
O 5.25902 6.23868 3.6217
H 6.20089 6.43617 3.74001
H 5.19249 5.77593 2.7148
O 7.89699 7.24562 39.4182
H 8.05946 7.31508 40.3089
H 8.53419 7.8463 39.0616
O 6.29741 5.49884 38.0347
H 6.99129 5.82875 38.5742
H 6.6128 4.69749 37.6053
O 40.5698 7.55701 18.9396
H 41.3588 7.88691 18.5986
H 40.7553 6.59546 18.964
O 3.48887 1.0485 4.84456
H 3.61392 1.98427 4.99745
H 3.06344 0.843348 5.69059
O 5.02799 0.309835 2.64124
H 5.86604 43.9636 2.79978
H 4.706 0.327572 3.56312
O 17.6478 41.5576 42.8621
H 17.4487 41.3657 41.9175
H 17.4595 42.5334 43.0078
O 8.34869 7.12681 4.2304
H 8.62373 7.9269 4.74445
H 9.13267 6.56772 4.13433
O 6.04034 0.245807 25.4223
H 6.18596 1.08805 24.9071
H 5.28538 -0.14272 24.9077
O 11.5443 42.6099 1.1008
H 12.3343 42.204 0.765671
H 11.4641 42.2404 1.98735
O 10.4464 1.91357 42.6704
H 10.6993 2.51517 41.9622
H 9.51501 2.21883 42.8078
O 13.5639 6.1716 4.39226
H 13.0976 5.50345 4.94823
H 14.079 5.66288 3.79506
O 14.3611 3.42271 3.22228
H 13.5746 3.29375 3.86402
H 13.9602 3.02455 2.40501
O 13.0335 3.73294 8.29001
H 12.6888 4.39055 8.86146
H 13.9722 3.86193 8.17395
O 8.5534 1.73025 2.03495
H 9.25886 1.56081 1.42077
H 7.74233 1.89477 1.57228
O 16.4001 40.5409 45.1536
H 16.8571 40.6109 44.3039
H 17.1035 40.7987 0.614706
O 17.0789 3.26001 4.06742
H 16.1505 3.15416 3.74763
H 17.1258 4.22082 4.19655
O 9.44717 3.23863 4.32226
H 8.71651 3.09017 4.97114
H 9.1907 2.74469 3.51122
O 13.4473 2.83642 0.701848
H 13.2694 3.69082 45.5362
H 12.7259 2.29614 0.363083
O 11.067 1.18155 0.254589
H 10.9546 1.01003 44.5013
H 11.2691 0.306194 0.640149
O 13.5693 40.8368 0.220666
H 13.2873 40.1453 44.7952
H 14.5239 40.7401 0.218927
O 17.4044 0.130952 43.4507
H 17.8625 0.441304 44.2633
H 17.5486 0.701277 42.7017
O 17.3583 1.85501 6.78503
H 16.7098 1.18865 6.60476
H 17.4223 2.37673 5.98421
O 12.2286 3.7194 5.29703
H 12.308 3.70642 6.25037
H 11.306 3.65858 5.03229
O 15.9168 4.11075 7.89277
H 16.4149 3.29697 7.73707
H 16.3972 4.7886 7.43209
O 18.118 0.831191 0.842232
H 18.1875 1.68513 1.19475
H 17.9798 0.225532 1.56162
O 12.0736 11.5278 4.15817
H 12.3425 10.5872 4.31614
H 11.2428 11.5265 3.74926
O 18.9077 7.926 2.78696
H 18.9675 7.80457 1.84939
H 18.276 7.26472 3.13683
O 20.7046 7.813 4.89683
H 21.0908 8.61058 4.6347
H 20.2943 7.45472 4.09649
O 21.6456 0.12025 9.27397
H 22.1509 44.2104 10.0961
H 22.3743 0.370553 8.72294
O 18.2379 7.2059 6.65005
H 18.8081 6.6937 7.20818
H 18.8614 7.75089 6.1318
O 13.4386 13.7988 5.68507
H 13.1129 13.2928 4.92651
H 13.3151 13.3044 6.50488
O 24.5776 0.727957 10.044
H 24.8893 0.294951 9.2629
H 25.2873 0.697494 10.6492
O 20.0647 4.99226 8.10483
H 19.9388 3.99997 8.14266
H 20.3829 5.1254 8.98487
O 16.8993 6.14544 4.6018
H 15.9789 6.40053 4.71794
H 17.3494 6.45404 5.40142
O 13.1221 9.02359 4.92207
H 14.0535 9.01525 4.65807
H 12.8611 8.14153 4.65926
O 16.17 14.7728 5.08312
H 15.219 14.666 5.23124
H 16.2121 15.7354 5.11553
O 28.9825 42.5425 7.7104
H 29.7741 42.5228 7.19054
H 28.6722 41.6308 7.57424
O 26.8726 0.390124 8.32963
H 26.4583 0.491281 7.43789
H 27.6246 43.944 8.14822
O 22.673 6.70797 6.44549
H 22.4348 5.80298 6.6562
H 21.925 7.05348 5.90944
O 19.8391 2.15407 8.42316
H 19.2632 1.93694 7.76506
H 20.4353 1.44521 8.65393
O 28.2533 39.717 7.03856
H 27.6245 39.5239 6.36774
H 28.8894 39.0669 6.9504
O 22.1745 8.52525 40.9868
H 22.6382 7.6963 40.7055
H 21.3035 8.37811 40.7581
O 19.6849 7.77345 39.6788
H 19.6829 7.13932 39.0028
H 19.1005 8.46028 39.424
O 33.7254 3.85725 3.8715
H 33.2263 4.08756 4.64638
H 33.2625 4.31284 3.18838
O 30.1516 4.70066 7.83521
H 30.7296 4.17358 8.42862
H 29.2291 4.47892 7.83229
O 32.0424 5.18286 5.72191
H 31.3133 5.11054 6.27924
H 31.8124 6.03243 5.28087
O 27.4482 41.9044 1.9994
H 28.2276 42.5929 2.17007
H 27.5764 41.6366 1.14878
O 32.4147 3.16996 8.24637
H 33.1069 3.65606 7.79353
H 32.877 2.84447 9.02816
O 25.6523 6.21875 6.24809
H 24.7511 6.59777 6.40244
H 26.0946 6.9648 5.83653
O 19.915 8.21253 -0.0800147
H 20.6454 8.79712 44.9217
H 19.7844 7.78245 44.2589
O 22.2755 9.24641 43.6404
H 22.6362 10.0889 43.5583
H 22.3148 8.9301 42.7584
O 26.7644 39.71 4.25107
H 27.0342 40.4771 3.65156
H 25.9611 39.3152 3.87418
O 29.0472 43.2668 45.115
H 29.4595 43.3317 44.2166
H 28.3658 -0.19513 44.9571
O 22.0233 15.0858 5.27166
H 21.2524 15.2052 5.86478
H 21.9515 15.8564 4.67475
O 36.6948 3.46902 3.88696
H 35.7521 3.64031 3.73012
H 36.5913 2.69358 4.32456
O 27.3208 4.31993 7.73388
H 26.6648 4.86111 7.27478
H 26.8981 3.46709 8.07512
    
    &END COORD
  &END SUBSYS
  &DFT
    BASIS_SET_FILE_NAME  BASIS_SET
    POTENTIAL_FILE_NAME  GTH_POTENTIALS
    &QS
      EPS_DEFAULT 1.0E-10
    &END QS
    &MGRID
      NGRIDS 4
      CUTOFF 135
      REL_CUTOFF 115
    &END MGRID
    &XC
      &XC_FUNCTIONAL PADE
      &END XC_FUNCTIONAL
    &END XC
    &SCF
      SCF_GUESS ATOMIC
      EPS_SCF 1.0E-7
      MAX_SCF 300
      &DIAGONALIZATION  ON
        ALGORITHM STANDARD
      &END DIAGONALIZATION
      &MIXING  T
        METHOD BROYDEN_MIXING
        ALPHA 0.4
        NBROYDEN 8
      &END MIXING
    &END SCF
  &END DFT
  &PRINT
    &FORCES ON
    &END FORCES
  &END PRINT
&END FORCE_EVAL
