&GLOBAL
  PROJECT H2O_bulk
  RUN_TYPE ENERGY_FORCE
  PRINT_LEVEL LOW
&END GLOBAL
&FORCE_EVAL
  METHOD Quickstep
  &SUBSYS
    &KIND H
      ELEMENT   H
      BASIS_SET DZVP-GTH-PBE
      POTENTIAL GTH-PBE-q1
    &END KIND
    &KIND O
      ELEMENT   O
      BASIS_SET DZVP-GTH-PBE
      POTENTIAL GTH-PBE-q6
    &END KIND
    &CELL
      A     46.937    0.000000000    0.000000000
      B     0.000000000    44.121    0.000000000
      C     0.000000000    0.000000000    45.182
    &END CELL
    &COORD

O 1.05372 0.18077 0.104069
H 0.487212 0.19987 44.4456
H 0.485231 0.621315 0.834305
O 5.34753 4.45488 44.4817
H 5.04341 5.15015 43.9281
H 5.41797 3.64101 43.9317
O 5.02453 3.39824 2.09067
H 5.1155 2.50078 1.74824
H 5.0756 3.8588 1.21418
O 3.28107 4.6975 4.17901
H 3.69154 4.53659 5.00005
H 3.90859 4.43429 3.50909
O 46.5352 1.77006 2.0372
H 0.0686375 2.10009 2.84598
H 45.6065 2.00012 2.08524
O 3.35389 7.8949 4.46516
H 3.16791 6.94452 4.61598
H 2.91475 8.38126 5.14517
O 5.87836 2.23453 42.6997
H 6.0533 1.29602 42.9807
H 6.3557 2.23532 41.8253
O 0.77685 3.16875 4.33437
H 1.64402 3.72044 4.27786
H 0.282684 3.68625 4.98369
O 2.2403 8.48698 2.0256
H 2.65763 8.41215 2.91432
H 1.79129 7.65785 1.82562
O 1.57658 9.93236 6.08023
H 1.23963 9.76978 6.97011
H 1.83323 10.8504 6.02285
O 32.273 20.1324 37.3775
H 32.7848 20.9142 37.1567
H 32.6916 19.4995 36.8155
O 3.7295 43.5838 0.191098
H 3.78021 42.6544 45.2373
H 2.76874 43.8339 0.0929988
O 5.7256 0.798418 1.3191
H 6.49441 0.852657 0.686571
H 4.90211 0.39694 0.989312
O 13.2438 43.12 8.82233
H 13.7491 42.3353 8.947
H 13.905 43.8114 8.82525
O 4.60881 4.26731 6.68109
H 4.58776 3.30386 6.76341
H 5.55097 4.4854 6.63835
O 40.7173 32.383 24.3367
H 40.355 33.3475 24.5062
H 41.6331 32.4364 24.7676
O 9.74123 0.829565 2.64509
H 9.27847 0.179996 2.11734
H 10.6014 0.398434 2.76307
O 9.51522 6.22692 43.68
H 9.8174 5.45921 43.1883
H 8.64663 6.47975 43.4083
O 14.6757 4.28033 5.83114
H 14.8016 5.07119 6.34504
H 13.7734 4.42867 5.41872
O 12.1621 4.31167 5.41658
H 11.5479 4.79067 5.91355
H 11.6324 3.91304 4.7511
O 9.78783 2.63283 7.11318
H 9.84953 1.71669 6.85942
H 9.41325 2.56426 8.02128
O 7.37053 4.00573 3.76923
H 8.28392 3.71802 3.61914
H 6.79477 3.68044 3.0518
O 13.3963 42.8145 5.73646
H 12.8451 42.7511 6.50748
H 14.1333 43.4053 5.95081
O 13.6895 2.56671 7.64135
H 12.8212 2.44036 7.22786
H 14.1136 3.18264 7.02211
O 7.68876 4.86734 6.52751
H 8.11089 4.12325 7.0071
H 7.55405 4.6445 5.56653
O 9.95471 3.31192 3.51932
H 10.0832 2.51118 3.05105
H 10.1097 4.10274 2.86089
O 9.96891 5.55468 1.54101
H 10.6635 6.11861 1.22615
H 9.4856 5.36668 0.690911
O 12.108 43.5289 3.35946
H 12.4604 42.9641 2.66271
H 12.5029 43.3494 4.2203
O 15.4219 0.157891 7.3752
H 16.3479 0.339611 7.25828
H 15.0233 1.0137 7.42613
O 11.7936 1.21123 10.3734
H 12.2075 0.317566 10.1915
H 12.5415 1.7667 10.146
O 10.1291 6.10404 6.09137
H 10.0067 6.89568 6.60247
H 9.26972 5.60851 6.20149
O 9.20093 2.00311 9.7457
H 10.0986 1.89174 10.0658
H 8.7378 1.19983 9.98012
O 17.9411 0.809696 6.76943
H 18.213 1.72029 6.54866
H 18.6766 0.285642 6.62796
O 20.1806 4.93773 44.9938
H 20.8898 4.83051 0.380937
H 19.5023 5.25156 0.418479
O 21.9371 4.63838 2.04896
H 22.7552 4.78131 1.52582
H 21.7983 5.33001 2.68757
O 21.7886 2.78498 4.94803
H 21.8436 2.87322 3.96759
H 22.3337 2.02887 5.17657
O 21.1785 43.5467 6.76265
H 21.9938 43.8792 6.34628
H 21.0796 42.6131 6.5786
O 19.0986 3.1261 5.64262
H 19.3072 3.74746 6.42408
H 20.0153 2.9469 5.3706
O 20.0648 6.62037 42.5053
H 19.1436 6.92365 42.5222
H 20.2439 6.14202 43.3351
O 23.292 0.552993 5.6241
H 23.9812 0.585237 6.30367
H 23.7774 0.158272 4.89104
O 20.394 3.69953 8.49739
H 20.6268 2.80743 8.78447
H 19.8974 4.10224 9.23981
O 17.3148 4.58401 3.84526
H 16.4973 4.50443 4.3264
H 17.9719 4.14764 4.42922
O 18.0543 5.58743 1.44259
H 17.2747 6.06092 1.15667
H 17.7445 4.98234 2.12719
O 21.0186 8.27301 40.0527
H 20.6196 7.87238 40.8177
H 21.648 8.80151 40.5261
O 24.9756 43.5003 3.82591
H 25.7604 44.0974 3.72166
H 24.7968 42.9508 3.05977
O 24.8644 0.423681 7.85047
H 25.4153 1.04971 8.30872
H 25.0517 43.6791 8.36981
O 22.8841 4.82797 6.89443
H 22.2323 4.52618 7.50208
H 22.738 4.34381 6.11843
O 21.0716 1.0873 9.21389
H 20.3717 0.480245 9.47144
H 21.411 0.601922 8.4575
O 27.5571 0.844428 3.91071
H 28.3053 0.533429 3.31426
H 27.9093 1.35927 4.5871
O 27.7893 8.36959 1.04762
H 28.4019 8.77291 1.74061
H 27.9148 8.86464 0.283666
O 28.2448 9.36672 43.673
H 28.8252 8.85776 43.1593
H 28.1613 10.1195 43.1482
O 30.1999 7.39932 7.35268
H 30.8098 7.59155 6.65179
H 29.6261 6.79308 6.95999
O 28.6012 2.22228 6.10677
H 29.4915 1.97477 6.36552
H 27.9561 2.02424 6.7798
O 28.1383 5.32136 5.94514
H 28.4303 4.35825 5.99599
H 27.8909 5.3613 5.06543
O 29.6773 41.6052 0.165392
H 29.3425 40.6957 -0.0974855
H 30.3659 41.659 44.7018
O 31.467 2.37275 6.18994
H 31.9826 2.9415 5.60778
H 32.028 1.6359 6.42
O 25.4048 4.9174 8.44657
H 24.5457 4.80688 7.98925
H 25.9937 5.24241 7.74632
O 24.126 4.15263 0.331472
H 23.9213 3.59909 44.7864
H 24.6515 4.85775 -0.0298077
O 25.5419 6.62179 0.352578
H 25.6982 7.31051 44.8461
H 26.424 6.64889 0.603616
O 29.3841 43.9128 2.28605
H 29.4002 0.487758 1.67351
H 29.0316 43.2167 1.84608
O 26.5129 40.3701 44.5855
H 25.8166 39.7055 44.857
H 26.032 41.1878 44.6742
O 36.4645 33.684 23.3955
H 35.5431 33.9277 23.2404
H 36.8967 34.4059 22.9416
O 29.5164 10.0072 8.93329
H 29.7516 9.14809 8.4095
H 28.5901 9.94566 8.97745
O 26.5376 2.5649 8.90399
H 26.1969 3.46552 8.78789
H 26.9623 2.49078 9.81212
    
    &END COORD
  &END SUBSYS
  &DFT
    BASIS_SET_FILE_NAME  BASIS_SET
    POTENTIAL_FILE_NAME  GTH_POTENTIALS
    &QS
      EPS_DEFAULT 1.0E-10
    &END QS
    &MGRID
      NGRIDS 4
      CUTOFF 135
      REL_CUTOFF 115
    &END MGRID
    &XC
      &XC_FUNCTIONAL PADE
      &END XC_FUNCTIONAL
    &END XC
    &SCF
      SCF_GUESS ATOMIC
      EPS_SCF 1.0E-7
      MAX_SCF 300
      &DIAGONALIZATION  ON
        ALGORITHM STANDARD
      &END DIAGONALIZATION
      &MIXING  T
        METHOD BROYDEN_MIXING
        ALPHA 0.4
        NBROYDEN 8
      &END MIXING
    &END SCF
  &END DFT
  &PRINT
    &FORCES ON
    &END FORCES
  &END PRINT
&END FORCE_EVAL
