&GLOBAL
  PROJECT H2O_bulk
  RUN_TYPE ENERGY_FORCE
  PRINT_LEVEL LOW
&END GLOBAL
&FORCE_EVAL
  METHOD Quickstep
  &SUBSYS
    &KIND H
      ELEMENT   H
      BASIS_SET DZVP-GTH-PBE
      POTENTIAL GTH-PBE-q1
    &END KIND
    &KIND O
      ELEMENT   O
      BASIS_SET DZVP-GTH-PBE
      POTENTIAL GTH-PBE-q6
    &END KIND
    &CELL
      A     46.937    0.000000000    0.000000000
      B     0.000000000    44.121    0.000000000
      C     0.000000000    0.000000000    45.182
    &END CELL
    &COORD

O 0.537022 1.13982 3.00819
H -0.358959 1.00547 3.00976
H 0.854292 0.583105 3.7111
O 6.31714 4.28965 0.799301
H 5.86503 4.78857 0.0848635
H 6.17446 3.38727 0.540102
O 6.65395 5.72366 3.45334
H 7.56698 5.34442 3.4029
H 6.30778 5.3885 2.65653
O 4.91351 5.1213 5.41473
H 5.36789 5.37535 6.25192
H 5.46884 5.33665 4.66586
O 2.43447 -0.29373 4.74452
H 3.21062 0.110749 5.21695
H 2.61575 42.8213 4.83762
O 2.00426 5.99669 6.11376
H 2.91755 5.73247 5.88588
H 1.47208 5.6698 5.38087
O 5.39805 1.28048 0.188813
H 4.48004 1.14843 0.166944
H 5.75077 0.595384 -0.450349
O 5.18747 1.7726 5.47655
H 5.02992 2.76022 5.54447
H 5.80304 1.5616 6.19859
O 0.889706 6.20741 8.72583
H 1.32014 6.01655 7.90782
H 0.747178 5.29865 9.04577
O 0.857083 4.85843 3.34913
H 0.918896 5.32433 2.51875
H 0.675316 3.95564 3.08228
O 1.33805 7.03662 -0.0819826
H 1.28613 7.95384 -0.388476
H 1.44657 6.5664 -0.882445
O 2.46439 0.452658 0.69379
H 1.95839 0.281226 -0.100507
H 1.79318 0.475988 1.3892
O 6.27005 0.890233 2.97103
H 5.81162 1.03996 2.08935
H 5.75372 1.34107 3.6696
O 6.65799 -0.396791 9.81904
H 5.96979 -0.148915 10.421
H 6.67749 42.7591 9.84167
O 6.71445 6.08303 8.02752
H 7.61964 5.60611 8.15195
H 6.1755 5.70227 8.74242
O 0.739427 0.736105 9.1978
H 0.375337 0.0500846 9.70289
H 0.386052 0.517508 8.29439
O 8.99952 1.66046 3.05962
H 7.97994 1.40381 3.07006
H 9.41658 1.26934 2.26861
O 13.2477 4.94262 0.154439
H 13.782 5.20668 -0.610732
H 13.8096 5.16099 0.908883
O 14.2451 6.38685 3.53576
H 14.1492 7.30895 3.67476
H 13.9492 5.99691 4.32572
O 13.137 5.18165 5.90494
H 13.3764 5.46503 6.83004
H 12.2115 5.4381 5.88033
O 10.4878 0.614613 5.87431
H 9.92694 0.869986 5.18431
H 10.0335 0.85998 6.6784
O 10.2498 6.03141 5.5307
H 10.0354 5.50243 4.73721
H 9.84774 6.89943 5.35589
O 12.8368 0.975901 0.495708
H 13.0081 1.89853 0.308888
H 13.3485 0.777601 1.29986
O 13.1043 1.34343 5.6915
H 12.1747 1.17363 5.71795
H 13.1683 2.29418 5.71399
O 9.21603 4.92844 8.12864
H 9.34553 3.98716 8.16219
H 9.65063 5.20397 7.30485
O 9.41112 4.55565 3.11956
H 9.28442 3.55359 3.08545
H 9.8366 4.84915 2.26008
O 10.375 5.69585 0.913466
H 9.75375 5.66444 0.203622
H 11.2722 5.48061 0.502412
O 10.1184 0.526443 0.642617
H 9.88484 43.9483 0.0453559
H 11.0477 0.661714 0.633304
O 14.2433 0.487814 2.79165
H 15.0994 0.856344 2.88064
H 13.8249 0.668031 3.63635
O 13.4581 0.0287196 8.81319
H 14.2769 0.427216 9.06101
H 13.3074 0.334975 7.92568
O 12.8743 6.35682 8.92912
H 13.2806 7.17047 9.27234
H 12.6265 5.87452 9.69425
O 9.41902 1.33518 8.74824
H 10.157 1.1513 9.36349
H 8.69025 0.816169 9.04821
O 16.904 1.65567 3.43598
H 17.1043 2.58969 3.44072
H 17.2829 1.3262 4.22064
O 20.9578 4.71525 0.275843
H 21.2492 5.06329 1.1062
H 20.0877 5.15115 0.228189
O 21.9914 5.86044 3.3642
H 22.8961 5.65221 3.22182
H 21.9799 6.82959 3.55265
O 20.972 4.69685 5.71134
H 21.3541 4.96045 4.86157
H 20.947 3.75961 5.7238
O 18.3006 0.397561 5.85012
H 19.2881 0.796337 5.7836
H 18.4284 43.5654 5.84027
O 18.3034 5.70512 5.4889
H 17.8933 5.48952 6.27411
H 19.2124 5.3821 5.50526
O 20.6267 1.7245 0.273436
H 21.2462 1.50803 0.944658
H 20.7266 2.64046 0.276409
O 20.8701 1.68713 5.82923
H 21.383 1.33168 6.63397
H 21.3999 1.31074 5.11252
O 17.6351 4.53603 8.35186
H 18.0269 3.67205 8.55452
H 16.7876 4.47912 8.80408
O 17.0223 5.10014 3.1369
H 16.2077 5.59239 3.16085
H 17.498 5.22733 3.93222
O 18.3522 5.88332 0.570645
H 18.0957 6.77462 0.384139
H 17.8971 5.66911 1.36948
O 18.545 -0.407816 -0.179862
H 19.1561 0.296393 -0.0370106
H 17.831 -0.236207 0.427614
O 22.493 0.0514249 3.7993
H 23.2934 0.562199 3.56604
H 22.7404 43.2657 3.67685
O 22.1664 0.602879 8.04599
H 22.9677 0.970282 8.36111
H 22.3774 -0.311179 7.95521
O 22.3198 5.82488 8.25218
H 22.1514 6.68201 8.60924
H 21.8109 5.7616 7.47475
O 18.1769 1.75556 8.79117
H 18.8136 1.31451 9.28292
H 18.1835 1.29647 7.96361
O 24.7188 1.58175 3.37056
H 25.2887 1.28505 2.63174
H 25.2333 1.30669 4.27136
O 29.2191 5.05934 0.021972
H 29.5968 5.40682 -0.711439
H 29.5394 4.14728 0.0156968
O 30.2321 6.15076 2.89354
H 30.0427 6.10503 1.95015
H 31.1246 5.80876 2.88105
O 28.8487 5.09948 6.01232
H 29.4075 5.24914 5.24997
H 28.0559 5.62041 5.82301
O 25.7724 0.809766 5.841
H 26.7248 0.844262 5.95124
H 25.4238 1.13921 6.64265
O 25.8591 6.19601 5.86604
H 25.5019 5.79623 4.97254
H 25.6411 7.0897 5.69872
O 29.2177 1.07193 0.180373
H 29.4475 0.50309 0.974999
H 29.7214 0.685024 -0.51098
O 28.6449 1.34305 5.73382
H 28.904 2.26348 5.61624
H 29.2738 0.871358 5.15032
O 24.8882 4.41469 8.22011
H 24.0209 4.74956 8.26615
H 25.3492 4.9907 7.63546
O 24.7058 4.91762 3.17922
H 24.7311 3.94362 3.20979
H 25.2259 5.14764 2.33968
O 26.0523 5.70069 0.879817
H 25.9155 6.56317 0.473162
H 27.0001 5.53073 0.73052
O 26.1384 0.722175 0.626654
H 25.9563 43.9385 0.296087
H 27.0154 0.906104 0.259676
O 31.1383 -0.410771 2.7866
H 31.4803 42.8353 2.42114
H 31.9051 -0.0403886 3.17848
O 30.6228 0.0472518 9.18519
H 30.0451 0.70355 8.88888
H 31.4462 0.323867 8.84749
O 30.7675 5.91191 9.01229
H 30.2631 5.75925 8.29333
H 30.5029 6.80123 9.30655
O 24.9778 1.71487 8.39957
H 24.973 2.61766 8.22571
H 25.5831 1.61935 9.08458
    
    &END COORD
  &END SUBSYS
  &DFT
    BASIS_SET_FILE_NAME  BASIS_SET
    POTENTIAL_FILE_NAME  GTH_POTENTIALS
    &QS
      EPS_DEFAULT 1.0E-10
    &END QS
    &MGRID
      NGRIDS 4
      CUTOFF 135
      REL_CUTOFF 115
    &END MGRID
    &XC
      &XC_FUNCTIONAL PADE
      &END XC_FUNCTIONAL
    &END XC
    &SCF
      SCF_GUESS ATOMIC
      EPS_SCF 1.0E-7
      MAX_SCF 300
      &DIAGONALIZATION  ON
        ALGORITHM STANDARD
      &END DIAGONALIZATION
      &MIXING  T
        METHOD BROYDEN_MIXING
        ALPHA 0.4
        NBROYDEN 8
      &END MIXING
    &END SCF
  &END DFT
  &PRINT
    &FORCES ON
    &END FORCES
  &END PRINT
&END FORCE_EVAL
