&GLOBAL
  PROJECT H2O_bulk
  RUN_TYPE ENERGY_FORCE
  PRINT_LEVEL LOW
&END GLOBAL
&FORCE_EVAL
  METHOD Quickstep
  &SUBSYS
    &KIND H
      ELEMENT   H
      BASIS_SET DZVP-GTH-PBE
      POTENTIAL GTH-PBE-q1
    &END KIND
    &KIND O
      ELEMENT   O
      BASIS_SET DZVP-GTH-PBE
      POTENTIAL GTH-PBE-q6
    &END KIND
    &CELL
      A     46.937    0.000000000    0.000000000
      B     0.000000000    44.121    0.000000000
      C     0.000000000    0.000000000    45.182
    &END CELL
    &COORD

O 1.76401 3.04409 6.83088
H 1.82138 3.13777 7.77751
H 1.55786 3.92828 6.50895
O 5.0834 1.99731 43.3994
H 4.44192 2.59881 43.0177
H 5.22701 1.33951 42.7168
O 5.62184 1.77882 1.23277
H 5.08106 1.20383 1.79851
H 5.29404 1.80794 0.287448
O 5.00717 4.91257 1.86747
H 5.87735 5.3081 2.10626
H 5.24284 3.91878 1.79111
O 1.30615 5.64314 5.9247
H 1.81558 5.76925 5.15556
H 0.406388 5.48393 5.54113
O 3.94352 6.25815 44.6462
H 3.94731 5.75585 0.241876
H 4.80727 6.70211 44.6166
O 3.06424 4.08961 42.7831
H 3.47876 4.76044 43.348
H 2.24176 4.09219 43.1706
O 2.54025 5.61201 3.19523
H 3.32903 5.35821 2.673
H 2.03399 6.01383 2.52943
O 5.01417 10.5524 43.8776
H 4.44224 11.0027 43.2144
H 4.75358 10.8969 44.7265
O 6.32169 7.94314 44.348
H 6.76103 8.18115 45.148
H 5.90668 8.76915 44.0275
O 12.5101 36.4116 27.7784
H 11.9271 35.6801 27.6391
H 11.874 37.086 28.0353
O 1.72235 1.0362 4.76868
H 0.880328 0.681106 4.52317
H 1.73153 1.69225 5.46081
O 3.71717 0.564525 2.98334
H 3.5409 43.8732 3.49813
H 2.9882 1.05925 3.34632
O 16.2358 42.2946 6.14329
H 16.4331 41.9276 6.98719
H 16.5147 43.1949 6.23158
O 7.41992 5.61414 2.88538
H 7.6109 6.24533 3.57531
H 7.86428 4.76118 3.11401
O 46.7532 13.5193 1.99422
H 47.4184 13.9558 1.52958
H 47.2131 12.8389 2.30846
O 13.4164 43.2718 0.109524
H 13.6411 42.6857 0.865068
H 13.6377 42.7982 44.4771
O 10.2627 1.41408 42.6622
H 10.9496 1.87394 42.1806
H 9.41022 1.64794 42.3483
O 15.6099 6.36702 4.2629
H 15.4037 7.05111 4.86038
H 14.8964 5.69555 4.42492
O 13.3329 4.36509 4.04884
H 12.5112 4.63777 4.43922
H 13.2116 3.92834 3.2028
O 7.60179 1.87059 5.75215
H 6.77734 1.3767 5.57824
H 8.36281 1.23613 5.93881
O 8.93103 1.08894 1.62496
H 9.58519 1.0311 0.931772
H 8.06114 1.11523 1.21682
O 16.2941 41.0906 3.76813
H 16.2856 41.3786 4.65711
H 17.2033 41.0264 3.53516
O 14.2606 2.11264 5.62263
H 13.8816 2.7561 5.0443
H 13.9201 2.40527 6.48317
O 8.74126 3.16135 3.75446
H 8.29665 2.66867 4.46545
H 9.09393 2.48716 3.14626
O 13.1826 2.83999 1.86456
H 13.9831 2.68434 1.32089
H 12.5612 2.40528 1.35781
O 11.3398 1.03841 0.145733
H 11.0167 1.14315 44.4706
H 11.8645 0.227385 0.150162
O 14.2158 41.229 1.90589
H 13.5031 40.7829 2.34653
H 14.9723 41.0991 2.45649
O 17.1315 1.00925 6.32999
H 17.4311 1.3206 5.45992
H 16.2486 1.3958 6.41999
O 12.048 43.6379 6.33209
H 12.0661 42.8864 5.75114
H 12.8819 -0.0294434 6.14221
O 10.73 4.87189 5.49293
H 10.3376 5.18287 6.29578
H 10.1314 4.23476 5.04145
O 9.35004 44.0381 6.06229
H 10.2893 44.2592 5.99074
H 9.40826 43.4241 6.7857
O 18.0909 2.25756 3.81
H 18.1657 3.21679 4.09121
H 18.8131 2.08882 3.24048
O 18.072 9.31471 0.908535
H 18.1517 9.10345 -0.00130887
H 18.316 8.4332 1.26531
O 24.5551 7.11091 2.67761
H 24.2503 6.72008 1.85798
H 24.5393 8.07777 2.59281
O 23.2276 6.45644 5.39392
H 23.0047 7.15277 4.87886
H 23.6299 5.80139 4.83982
O 20.657 0.409304 9.01319
H 20.3159 0.448567 9.91325
H 21.6354 0.239936 9.19124
O 20.2992 6.38155 6.00785
H 20.0566 6.12822 6.94149
H 21.2485 6.29063 5.91818
O 16.3753 11.7752 1.06301
H 15.7081 11.1209 0.953011
H 17.1939 11.2621 1.18994
O 23.3559 43.8135 9.01737
H 24.271 43.9685 8.70902
H 23.4267 43.049 9.57398
O 19.388 5.26321 8.36613
H 19.18 4.27775 8.34103
H 19.6669 5.53526 9.24445
O 18.5274 4.97441 4.47135
H 17.7539 5.54665 4.60083
H 19.1701 5.3727 5.10301
O 17.9681 6.3814 1.83296
H 18.4702 5.88641 2.50119
H 17.1468 5.92568 1.67845
O 17.1229 14.1681 2.36686
H 16.6135 13.6212 1.78424
H 16.4401 14.8468 2.4703
O 28.5898 42.4466 7.65243
H 28.5127 42.2854 6.70599
H 29.0453 41.6842 7.92173
O 26.1747 43.804 9.27518
H 26.6045 0.550048 9.56314
H 26.8535 43.3823 8.71328
O 24.6867 5.74518 8.40435
H 24.1699 6.52124 8.56648
H 24.5007 5.51849 7.48
O 19.0278 2.58403 8.19417
H 18.3025 2.09932 7.72576
H 19.7655 1.91787 8.27836
O 28.3537 41.2487 4.93215
H 27.6142 41.4945 4.41788
H 29 41.0275 4.27442
O 23.2379 7.76865 42.3662
H 22.788 7.76966 41.4954
H 23.5577 8.72604 42.4735
O 23.8103 10.4616 42.5381
H 24.3877 11.1536 42.3339
H 23.4923 10.8358 43.3445
O 30.9692 7.55685 4.27469
H 30.6351 7.30222 5.14891
H 31.0649 6.70863 3.83317
O 30.2549 3.83861 7.93224
H 31.0444 3.26334 7.94313
H 29.7045 3.37359 8.5478
O 29.6712 5.20068 5.3275
H 29.8534 4.60286 6.11954
H 28.7033 5.19993 5.30773
O 25.5587 43.3803 0.687705
H 25.3756 43.0553 45.0007
H 26.0713 44.2514 0.500924
O 32.6966 2.41977 7.72957
H 32.871 1.51171 7.50868
H 33.1938 2.5975 8.55013
O 26.5181 4.44626 10.1373
H 26.0212 4.69861 9.34652
H 25.869 4.49461 10.8922
O 23.4451 6.15279 0.287582
H 22.5527 6.32503 -0.0306929
H 23.8453 5.65557 44.7119
O 23.9467 5.13566 42.8696
H 24.4258 4.60177 42.2876
H 23.9525 6.0432 42.5406
O 27.0369 41.6433 2.61867
H 27.2696 40.9982 1.91357
H 26.6559 42.3355 2.01944
O 23.9014 41.6653 44.4565
H 23.1308 41.9555 44.8553
H 23.646 40.7706 44.1917
O 29.1123 24.1406 37.3513
H 28.9799 23.1938 37.457
H 28.2591 24.4732 37.71
O 29.9611 9.63841 2.67007
H 30.1513 9.05622 3.42246
H 30.5122 9.37093 1.87537
O 27.7991 1.91716 10.0539
H 27.3718 2.7722 10.1544
H 28.2813 1.86312 10.8456
    
    &END COORD
  &END SUBSYS
  &DFT
    BASIS_SET_FILE_NAME  BASIS_SET
    POTENTIAL_FILE_NAME  GTH_POTENTIALS
    &QS
      EPS_DEFAULT 1.0E-10
    &END QS
    &MGRID
      NGRIDS 4
      CUTOFF 135
      REL_CUTOFF 115
    &END MGRID
    &XC
      &XC_FUNCTIONAL PADE
      &END XC_FUNCTIONAL
    &END XC
    &SCF
      SCF_GUESS ATOMIC
      EPS_SCF 1.0E-7
      MAX_SCF 300
      &DIAGONALIZATION  ON
        ALGORITHM STANDARD
      &END DIAGONALIZATION
      &MIXING  T
        METHOD BROYDEN_MIXING
        ALPHA 0.4
        NBROYDEN 8
      &END MIXING
    &END SCF
  &END DFT
  &PRINT
    &FORCES ON
    &END FORCES
  &END PRINT
&END FORCE_EVAL
