&GLOBAL
  PROJECT H2O_bulk
  RUN_TYPE ENERGY_FORCE
  PRINT_LEVEL LOW
&END GLOBAL
&FORCE_EVAL
  METHOD Quickstep
  &SUBSYS
    &KIND H
      ELEMENT   H
      BASIS_SET DZVP-GTH-PBE
      POTENTIAL GTH-PBE-q1
    &END KIND
    &KIND O
      ELEMENT   O
      BASIS_SET DZVP-GTH-PBE
      POTENTIAL GTH-PBE-q6
    &END KIND
    &CELL
      A     46.937    0.000000000    0.000000000
      B     0.000000000    44.121    0.000000000
      C     0.000000000    0.000000000    45.182
    &END CELL
    &COORD

O 3.42888 3.18924 7.11968
H 4.27326 2.83046 7.52019
H 3.761 3.99117 6.68525
O 5.88828 1.41723 43.1317
H 5.52329 2.23912 42.8336
H 5.32838 0.729237 42.7787
O 6.30742 1.96847 0.663224
H 6.15323 1.29057 1.33877
H 6.17874 1.64685 44.9625
O 4.53309 4.32115 1.66894
H 5.04708 3.63485 1.19059
H 3.61876 4.37656 1.41061
O 5.03539 5.13017 5.80202
H 4.89528 5.33978 4.82397
H 5.4683 5.97796 6.05072
O 3.95153 5.40279 40.3458
H 3.74045 6.28509 40.622
H 4.28167 5.4553 39.479
O 3.77285 3.01824 41.9197
H 3.77346 3.80861 41.3336
H 3.01093 3.14789 42.4983
O 5.28768 6.51057 3.21233
H 6.14177 6.76346 3.47432
H 5.37437 5.80363 2.64338
O 7.94502 7.4371 39.7831
H 7.94995 7.62403 40.7366
H 8.22375 8.35146 39.4159
O 6.01509 5.35227 38.643
H 6.51891 6.13062 38.8388
H 6.54377 4.96235 37.9311
O 41.5251 6.85967 19.3525
H 42.2124 6.52072 18.8359
H 41.0107 6.04196 19.5537
O 3.43414 1.29924 4.90419
H 3.42867 1.99534 5.54645
H 3.16493 0.539796 5.45624
O 5.41858 0.322907 2.95137
H 5.92923 43.9842 3.59697
H 4.92141 0.8023 3.59532
O 17.624 41.5549 43.1
H 17.4642 41.1201 42.2465
H 17.6014 42.4894 42.8603
O 8.04961 7.24703 4.16503
H 8.71656 7.75889 4.6268
H 8.50369 6.42075 4.11495
O 5.6742 0.766493 24.1652
H 6.5371 1.02239 24.5043
H 5.13847 1.53465 24.4159
O 11.6221 42.6486 1.19565
H 12.2814 42.0242 0.775042
H 11.707 42.4557 2.14297
O 10.3575 1.42913 42.7195
H 11.1164 1.35493 42.175
H 9.74133 0.949336 42.2
O 13.6461 5.90185 4.63536
H 12.8455 5.43458 4.88821
H 14.0199 5.40458 3.90006
O 14.4128 3.52899 3.12013
H 13.6794 3.24576 3.65924
H 14.0356 3.39695 2.24818
O 12.6271 4.05143 8.16948
H 12.1289 4.05 9.01048
H 13.5718 4.05621 8.46381
O 8.9777 2.13479 1.87829
H 9.69958 1.68162 1.37636
H 8.23311 2.19854 1.31831
O 16.1515 40.8103 0.0808529
H 16.6513 41.1656 44.4865
H 16.8632 40.5595 0.706371
O 17.3942 3.16807 3.97557
H 16.5027 3.07093 3.67814
H 17.4199 4.09262 4.19072
O 9.23192 3.42921 4.17938
H 8.78843 2.81995 4.74136
H 9.20093 3.05448 3.26527
O 13.5063 2.40442 0.743348
H 13.9885 2.73422 -0.0239722
H 12.6258 2.17664 0.367406
O 11.1399 1.02963 0.288696
H 10.7951 1.00585 44.5815
H 11.2484 0.109558 0.578237
O 13.406 40.8959 0.297166
H 13.2169 39.9699 0.127108
H 14.3872 40.8776 0.247741
O 17.8491 0.40476 43.3984
H 17.6852 0.570541 44.3452
H 18.7232 0.680783 43.1379
O 16.9915 1.7199 6.56782
H 16.2046 1.28925 6.19657
H 17.3276 2.30218 5.82619
O 11.7985 3.59186 5.19738
H 11.7861 3.56416 6.13734
H 10.8796 3.43166 4.85527
O 15.6156 3.72356 8.56972
H 15.9297 2.95392 8.05602
H 16.2535 3.79311 9.26776
O 17.7886 0.750304 1.43376
H 17.4023 1.52081 1.82137
H 18.504 0.555217 2.12103
O 12.5855 11.5735 4.09148
H 12.5858 10.6416 4.38061
H 11.7206 11.6565 3.81725
O 18.6547 7.68191 2.70377
H 18.9319 7.65021 1.79605
H 17.9102 7.10419 2.8868
O 20.2968 7.92213 4.96752
H 20.3529 8.89168 4.84437
H 19.739 7.57482 4.19861
O 21.6585 0.141278 9.35755
H 21.5627 43.3243 9.61274
H 22.6294 0.258271 9.21891
O 18.4208 7.02234 6.69305
H 19.0075 6.34286 7.13462
H 19.1017 7.6424 6.32592
O 13.7892 13.6064 5.89609
H 13.2822 12.9477 5.46336
H 13.5679 13.6546 6.82175
O 24.4716 0.792716 9.83324
H 25.0846 0.614428 9.07704
H 24.8049 1.5835 10.249
O 20.2734 4.90749 7.908
H 20.2442 4.21141 7.24534
H 20.1394 4.44266 8.74583
O 16.8552 6.10882 4.3916
H 15.9465 6.36662 4.68356
H 17.4059 6.42977 5.12381
O 13.0438 8.65012 4.78067
H 13.9348 8.55136 5.11712
H 12.9088 7.78597 4.43106
O 15.9469 15.1353 4.54567
H 15.0817 14.7167 4.62059
H 16.3636 14.9838 5.41711
O 28.7235 42.6119 7.7165
H 29.6689 42.6462 7.84835
H 28.5541 41.6645 7.51414
O 26.9809 0.534184 8.3859
H 27.6178 1.2919 8.24426
H 27.3879 -0.255218 7.9901
O 22.8275 6.28659 6.43908
H 22.2308 5.77781 6.98735
H 22.2284 6.82723 5.91173
O 19.5541 2.13646 8.81619
H 18.9904 1.5528 8.29923
H 20.1969 1.54881 9.30152
O 28.3354 39.9362 6.75206
H 27.563 39.8438 6.12235
H 28.9709 39.2469 6.4441
O 22.4075 8.38568 40.9419
H 22.8792 8.25299 40.0897
H 21.442 8.26306 40.7275
O 19.7675 7.98601 39.6016
H 19.0533 7.44816 39.9788
H 19.1978 8.79956 39.4461
O 33.8433 4.24268 3.72895
H 33.2812 4.21359 4.50074
H 33.3282 3.87455 3.03039
O 30.131 4.58122 7.70672
H 30.6678 4.01474 8.30399
H 29.1774 4.46871 7.79789
O 31.8937 5.04021 5.62381
H 31.3038 4.76982 6.36126
H 32.1742 5.89504 6.05579
O 27.2269 41.5426 1.86056
H 26.8466 42.407 2.20521
H 27.662 41.7957 1.12154
O 32.448 2.87101 8.59857
H 33.1029 3.1565 7.9725
H 32.5389 1.91991 8.45199
O 25.5865 6.24392 6.39633
H 24.7723 5.96357 5.99565
H 25.2796 7.04742 6.79784
O 20.4017 7.9327 0.177288
H 20.994 8.53048 -0.305868
H 20.7678 7.0801 -0.10871
O 22.4822 9.199 43.7727
H 22.957 9.98728 43.9118
H 22.6322 8.99087 42.7857
O 26.6902 39.6297 4.21521
H 26.9021 40.1025 3.43195
H 25.7901 39.8102 4.32937
O 28.914 43.5452 0.0756263
H 29.7176 43.4536 0.540636
H 29.1706 43.8602 -0.803029
O 22.2404 15.5568 4.64941
H 22.8098 16.2823 4.28208
H 22.9454 14.9639 4.99569
O 36.6376 3.9829 3.59549
H 35.7155 3.86978 3.91896
H 37.0604 3.32453 4.0444
O 27.1406 4.355 7.67453
H 26.6714 5.033 7.16836
H 26.6883 4.4618 8.55828
    
    &END COORD
  &END SUBSYS
  &DFT
    BASIS_SET_FILE_NAME  BASIS_SET
    POTENTIAL_FILE_NAME  GTH_POTENTIALS
    &QS
      EPS_DEFAULT 1.0E-10
    &END QS
    &MGRID
      NGRIDS 4
      CUTOFF 135
      REL_CUTOFF 115
    &END MGRID
    &XC
      &XC_FUNCTIONAL PADE
      &END XC_FUNCTIONAL
    &END XC
    &SCF
      SCF_GUESS ATOMIC
      EPS_SCF 1.0E-7
      MAX_SCF 300
      &DIAGONALIZATION  ON
        ALGORITHM STANDARD
      &END DIAGONALIZATION
      &MIXING  T
        METHOD BROYDEN_MIXING
        ALPHA 0.4
        NBROYDEN 8
      &END MIXING
    &END SCF
  &END DFT
  &PRINT
    &FORCES ON
    &END FORCES
  &END PRINT
&END FORCE_EVAL
