&GLOBAL
  PROJECT H2O_bulk
  RUN_TYPE ENERGY_FORCE
  PRINT_LEVEL LOW
&END GLOBAL
&FORCE_EVAL
  METHOD Quickstep
  &SUBSYS
    &KIND H
      ELEMENT   H
      BASIS_SET DZVP-GTH-PBE
      POTENTIAL GTH-PBE-q1
    &END KIND
    &KIND O
      ELEMENT   O
      BASIS_SET DZVP-GTH-PBE
      POTENTIAL GTH-PBE-q6
    &END KIND
    &CELL
      A     46.937    0.000000000    0.000000000
      B     0.000000000    44.121    0.000000000
      C     0.000000000    0.000000000    45.182
    &END CELL
    &COORD

O 1.69124 1.13425 45.1099
H 1.3273 1.37149 44.275
H 0.95897 1.09736 0.598013
O 4.52645 4.91553 44.8385
H 4.38085 5.71425 44.2886
H 4.94302 4.26073 44.281
O 5.12782 3.93916 3.00431
H 5.16185 3.09605 2.5902
H 4.69285 4.43496 2.29938
O 2.98352 4.11248 5.0871
H 3.4111 4.48953 5.95762
H 3.7454 3.98386 4.43665
O 0.165483 1.07529 2.19014
H -0.0349194 1.87568 2.77643
H 46.586 0.306188 2.30514
O 1.96838 7.04012 4.57802
H 2.19606 6.10419 4.61857
H 1.13644 7.18359 5.02637
O 5.93771 2.44548 43.4707
H 5.32676 1.79472 43.0386
H 6.73153 2.38441 42.9194
O -0.00181215 3.13071 4.1909
H 0.768808 3.61402 4.49835
H 46.278 3.4865 4.8384
O 3.03293 8.91025 2.73327
H 2.72959 8.28712 3.37603
H 3.46296 8.38045 2.07866
O 46.8506 7.98508 6.36109
H 46.2673 7.47269 6.91412
H 46.9054 8.87769 6.72497
O 36.0613 17.1383 39.0599
H 35.8171 16.2707 39.303
H 35.5111 17.6834 39.6528
O 4.23268 44.0672 0.392842
H 3.94876 43.2602 0.86778
H 3.37816 0.342893 0.195122
O 5.75909 1.7856 1.48075
H 6.00891 1.92681 0.576413
H 5.26077 0.968924 1.31681
O 13.1131 43.048 8.73039
H 13.4953 42.618 9.48481
H 13.8973 43.2228 8.18058
O 4.23565 5.43126 7.25996
H 5.19136 5.14265 7.11152
H 4.38473 6.39723 7.16562
O 41.4314 35.3816 20.7627
H 41.0978 35.9287 19.9515
H 42.1456 35.9365 21.0693
O 9.8827 1.31918 4.16737
H 9.12302 0.865775 3.87525
H 10.6334 0.661502 4.11195
O 9.72548 7.20254 43.0237
H 9.01799 7.78955 43.3482
H 10.5676 7.6706 42.8991
O 14.234 5.61921 5.31964
H 13.8696 6.54564 5.39156
H 13.4278 5.17913 5.10429
O 11.425 5.34475 4.87216
H 10.8583 5.48716 5.71452
H 10.9609 4.69525 4.22187
O 9.21645 1.8603 6.79578
H 9.29252 1.68638 5.83172
H 9.11011 1.04831 7.30975
O 7.59237 4.8181 4.05608
H 8.37906 4.50056 3.55966
H 6.82494 4.48656 3.58405
O 13.398 43.2879 6.00634
H 12.9405 42.9097 6.75212
H 13.8588 44.0537 6.26027
O 11.8441 2.89243 7.7109
H 11.0561 2.4505 7.34917
H 11.4667 3.74134 7.97351
O 7.05547 4.34767 6.65167
H 7.13057 3.42105 6.44259
H 7.11659 4.72151 5.7974
O 10.4537 3.89143 2.97625
H 10.3828 2.90752 2.98409
H 10.7958 4.19733 2.11601
O 10.3912 4.40367 45.0087
H 9.76574 3.91126 44.4229
H 10.3754 5.37016 44.7512
O 11.8459 43.5902 3.73595
H 12.4904 43.6774 3.01641
H 12.3289 43.3954 4.56358
O 14.7022 1.10026 7.50518
H 15.61 1.35747 7.31093
H 14.2224 1.92799 7.47697
O 11.7328 1.32868 10.0373
H 12.5879 0.85354 9.99123
H 11.7443 1.9184 9.23705
O 9.50942 5.26418 7.80797
H 9.32199 5.92657 8.4803
H 8.67576 4.86604 7.59027
O 9.1859 44.1907 9.5007
H 9.99895 0.477186 9.76505
H 8.90974 43.5906 10.1697
O 17.6536 0.959153 6.51843
H 18.1331 1.77666 6.29063
H 18.3065 0.224957 6.67898
O 19.5149 5.70954 0.649828
H 20.2828 5.31563 1.08932
H 18.6996 5.31801 1.08877
O 22.4561 4.50181 2.18431
H 23.1992 4.17609 1.66877
H 22.9001 5.25117 2.62983
O 21.6038 2.73457 4.60758
H 21.9417 3.1199 3.80866
H 22.1258 1.92705 4.74271
O 20.7166 43.4408 6.74351
H 21.4176 43.6748 6.08933
H 20.7363 42.5042 6.92398
O 19.0435 3.40522 6.04555
H 19.4352 3.79849 6.85762
H 19.832 3.2299 5.4984
O 19.6735 4.92149 43.1325
H 18.941 4.31111 43.0372
H 19.7933 5.17478 44.0828
O 23.0555 0.294846 4.95257
H 23.6771 0.500078 5.67407
H 23.6509 0.190852 4.20438
O 20.9463 3.48509 8.61499
H 21.0274 2.5634 8.65552
H 21.0224 3.80667 9.51017
O 17.002 4.72993 4.47014
H 16.1966 5.03499 4.90737
H 17.611 4.30306 5.09776
O 17.0157 4.73514 1.70957
H 16.8413 3.79744 1.65156
H 17.1636 4.82789 2.6661
O 21.491 5.48123 40.9129
H 20.8776 5.3578 41.6893
H 22.1844 5.94883 41.3653
O 25.0794 44.0814 3.0838
H 25.8652 0.486546 3.19674
H 25.3687 43.1656 3.05928
O 24.2173 0.783113 7.36154
H 24.9045 1.40931 7.64003
H 24.5152 44.1477 7.84202
O 22.7967 4.83943 6.87881
H 22.2142 4.39362 7.50825
H 22.7859 4.11747 6.18375
O 21.0011 0.821678 9.22063
H 21.0541 0.259495 9.9128
H 20.9284 0.187183 8.46868
O 27.5337 0.995926 3.38676
H 28.43 0.59136 3.10654
H 27.6532 1.51795 4.14429
O 27.718 7.71077 1.08759
H 27.1211 8.06172 1.71987
H 28.3389 8.3654 0.913233
O 29.8213 9.57342 -0.14827
H 29.8228 10.0781 44.1753
H 30.0306 10.2951 0.45489
O 29.077 6.81973 8.37764
H 28.1546 6.85497 8.67763
H 28.9844 6.50811 7.47254
O 28.2472 2.57461 5.46716
H 29.1281 2.1887 5.68703
H 27.5853 2.5021 6.14373
O 28.2098 5.97394 5.3653
H 28.302 4.97777 5.06314
H 28.6581 6.50617 4.73136
O 30.0469 41.5932 0.732039
H 29.3487 41.1162 1.22927
H 29.9437 41.2895 45.0498
O 30.8301 1.66461 7.10744
H 31.6619 2.12985 7.03493
H 30.7864 1.3161 8.00277
O 25.4375 5.61182 7.68517
H 24.5034 5.42135 7.55706
H 25.7087 6.16872 6.9601
O 24.6879 4.19133 0.259037
H 24.7756 3.64314 -0.568168
H 25.4501 4.84167 45.2112
O 27.059 5.5478 44.6203
H 27.0891 6.24415 43.9384
H 27.6013 5.91554 45.3308
O 30.3526 44.2062 2.74996
H 30.7809 43.799 3.47289
H 30.5141 43.7536 1.95976
O 28.6299 40.5537 43.5124
H 27.7232 40.2647 43.4177
H 28.8605 40.925 42.6647
O 36.0329 36.0566 20.185
H 35.8493 35.4726 19.5084
H 35.1937 36.328 20.4519
O 31.0538 9.07587 9.12989
H 30.4828 8.28133 8.95751
H 31.0276 9.54004 8.28104
O 26.0785 2.67612 7.98548
H 26.0147 3.559 7.78704
H 26.6103 2.60511 8.81432
    
    &END COORD
  &END SUBSYS
  &DFT
    BASIS_SET_FILE_NAME  BASIS_SET
    POTENTIAL_FILE_NAME  GTH_POTENTIALS
    &QS
      EPS_DEFAULT 1.0E-10
    &END QS
    &MGRID
      NGRIDS 4
      CUTOFF 135
      REL_CUTOFF 115
    &END MGRID
    &XC
      &XC_FUNCTIONAL PADE
      &END XC_FUNCTIONAL
    &END XC
    &SCF
      SCF_GUESS ATOMIC
      EPS_SCF 1.0E-7
      MAX_SCF 300
      &DIAGONALIZATION  ON
        ALGORITHM STANDARD
      &END DIAGONALIZATION
      &MIXING  T
        METHOD BROYDEN_MIXING
        ALPHA 0.4
        NBROYDEN 8
      &END MIXING
    &END SCF
  &END DFT
  &PRINT
    &FORCES ON
    &END FORCES
  &END PRINT
&END FORCE_EVAL
