&GLOBAL
  PROJECT H2O_bulk
  RUN_TYPE ENERGY_FORCE
  PRINT_LEVEL LOW
&END GLOBAL
&FORCE_EVAL
  METHOD Quickstep
  &SUBSYS
    &KIND H
      ELEMENT   H
      BASIS_SET DZVP-GTH-PBE
      POTENTIAL GTH-PBE-q1
    &END KIND
    &KIND O
      ELEMENT   O
      BASIS_SET DZVP-GTH-PBE
      POTENTIAL GTH-PBE-q6
    &END KIND
    &CELL
      A     46.937    0.000000000    0.000000000
      B     0.000000000    44.121    0.000000000
      C     0.000000000    0.000000000    45.182
    &END CELL
    &COORD

O 47.0125 1.93807 5.90995
H 46.9478 2.03543 6.8524
H 0.336544 2.82718 5.63048
O 4.06513 2.11018 43.8294
H 4.18654 2.9669 43.3615
H 4.13053 1.47449 43.0792
O 5.34933 2.52199 1.20351
H 4.83086 1.98721 1.78936
H 5.14112 2.25155 0.289179
O 4.83016 5.41354 2.00569
H 5.50971 5.58568 2.64907
H 4.67725 4.4571 1.96757
O 0.653385 4.74435 5.42948
H 0.929262 5.08088 4.55599
H 0.732988 5.48102 6.05429
O 5.21359 6.80943 44.848
H 5.31981 6.33161 0.508204
H 6.00964 7.2229 44.5649
O 4.19014 5.09826 42.7952
H 4.61759 5.66715 43.4635
H 3.23288 5.431 42.7519
O 1.90494 5.45546 3.00174
H 2.79492 5.8635 3.01585
H 1.66073 5.36151 2.044
O 3.58226 9.18484 44.8375
H 4.13771 8.50695 45.2708
H 2.66992 8.97677 45.0731
O 6.52959 8.9545 43.6995
H 7.34915 9.44452 43.7708
H 6.25916 8.96241 42.7816
O 16.1455 33.3105 29.6124
H 16.6237 34.0916 29.7424
H 16.8472 32.7748 29.1778
O 1.91149 44.1726 4.36868
H 2.04436 43.4428 4.9335
H 1.28989 0.639539 4.82919
O 4.38152 0.416053 2.99181
H 5.02363 -0.226187 3.14142
H 3.62521 0.451307 3.63657
O 15.2209 43.0498 6.75099
H 15.5035 42.4671 7.47114
H 15.6144 43.9223 6.92328
O 6.63519 5.51882 4.20205
H 6.70755 6.04895 5.00292
H 7.20627 4.7763 4.39785
O 45.6941 17.1301 42.8342
H 44.8983 17.4131 42.4532
H 45.4367 16.3886 43.21
O 13.2182 0.461671 0.436143
H 13.4233 43.6774 0.732375
H 13.7862 0.59156 44.8485
O 10.6827 2.70171 42.2825
H 10.9022 2.18221 41.525
H 9.8036 3.00305 42.0317
O 15.9995 5.24746 4.25873
H 15.973 6.00047 4.8553
H 15.216 4.70699 4.41197
O 13.6826 3.39802 5.09711
H 12.9972 4.08497 5.03668
H 13.5824 2.95799 4.25213
O 8.8138 0.400264 4.89026
H 9.22135 43.9893 4.24725
H 8.88843 -0.0845758 5.69686
O 8.04472 2.19138 2.10825
H 8.75798 2.41459 1.44159
H 7.19387 2.25253 1.63138
O 14.8421 41.2511 4.19352
H 14.9712 41.8465 4.94204
H 14.736 40.3994 4.58092
O 14.4129 2.32789 7.22483
H 14.0239 2.59396 6.37927
H 14.2534 3.06852 7.85288
O 8.67808 3.55074 4.49494
H 8.66333 2.87418 5.20103
H 8.45769 3.07435 3.61408
O 13.3175 2.47825 2.36624
H 13.4609 1.55652 1.95847
H 12.5031 2.697 1.9111
O 10.8191 2.37329 0.260012
H 10.89 2.78127 44.5852
H 11.3062 1.59413 0.051804
O 14.0813 41.741 1.42616
H 14.0432 40.8293 1.08856
H 14.3337 41.6013 2.41434
O 16.8729 1.35241 6.91194
H 17.3255 1.43397 6.05853
H 16.1931 2.06477 6.88428
O 13.0639 0.0537896 8.59104
H 13.5295 43.5918 7.97113
H 13.4117 0.918908 8.30516
O 11.3634 4.97881 4.64796
H 11.1219 5.90016 4.73421
H 10.5191 4.56855 4.48509
O 10.0382 43.4499 7.7837
H 10.9232 43.5605 8.07916
H 9.46821 43.4075 8.5195
O 18.0387 1.9022 4.50785
H 18.2022 2.76302 4.07821
H 18.8246 1.43169 4.16983
O 17.4815 8.51841 44.3426
H 17.8676 8.19455 43.5501
H 17.4769 7.7518 44.9699
O 24.3229 6.21407 3.78314
H 24.053 6.49283 2.87235
H 25.1478 6.66047 3.96469
O 23.497 4.53135 5.87584
H 23.9195 5.05397 5.20648
H 23.6115 3.61838 5.7053
O 21.2824 0.947266 9.38957
H 21.7475 0.681203 10.1912
H 21.8364 0.474728 8.69535
O 20.3343 5.26299 5.57911
H 19.8876 5.19312 6.40401
H 21.2152 5.00547 5.72498
O 17.1297 11.1377 45.2446
H 16.2699 11.1906 44.8679
H 17.522 10.4588 44.6865
O 23.0189 43.7211 7.46932
H 23.9448 44.0311 7.54355
H 22.9855 42.8214 7.16234
O 19.8848 4.78588 8.2087
H 19.457 3.93756 8.35636
H 19.564 5.34852 8.89641
O 18.5866 4.62629 3.65205
H 17.6898 4.84316 3.95474
H 19.2629 4.91831 4.32805
O 17.0531 6.41727 1.23577
H 17.5666 5.92738 1.88399
H 16.2975 6.70652 1.69314
O 18.356 13.2997 1.53371
H 18.0189 12.4411 1.32603
H 18.6153 13.5691 0.667806
O 27.7736 42.444 7.23383
H 28.116 42.5004 6.30376
H 28.5157 42.4132 7.89822
O 25.8258 0.180912 8.03873
H 26.0963 1.0039 8.3536
H 26.563 43.8516 7.65818
O 24.0729 5.37982 8.54519
H 23.1528 5.28667 8.85785
H 23.9455 5.25484 7.58243
O 18.7964 2.38907 8.99509
H 18.2621 2.02732 8.31341
H 19.6025 1.77662 9.16671
O 28.6949 43.1159 4.65502
H 27.9089 42.9406 4.09742
H 29.094 -0.354366 4.12089
O 23.4631 8.00212 42.6207
H 22.6873 8.22559 41.973
H 24.0392 8.76883 42.4504
O 24.9225 10.7155 42.5099
H 25.411 11.1254 43.2097
H 24.9656 11.3123 41.7859
O 29.5747 7.78782 5.2178
H 30.338 8.25597 5.58609
H 29.6699 6.81597 5.26994
O 30.0162 2.93169 7.02617
H 30.8532 2.69764 7.37959
H 29.4265 2.6879 7.71697
O 29.8174 5.07932 5.47979
H 29.9197 4.42897 6.17712
H 29.9277 4.47513 4.70609
O 25.2173 42.7037 0.599379
H 24.9605 42.0213 -0.0459472
H 24.8406 43.5616 0.174413
O 32.7147 1.87724 7.88735
H 33.4283 2.11746 7.29566
H 33.1951 1.36207 8.49542
O 26.2236 4.88843 10.2903
H 25.4751 5.0888 9.67063
H 25.7881 4.91887 11.1173
O 24.3427 6.64679 0.975787
H 23.6127 7.12478 0.522811
H 24.6374 6.1266 0.216371
O 24.8093 5.6251 43.5159
H 24.3446 4.94572 42.984
H 24.578 6.38408 43.0259
O 26.1297 42.745 3.37201
H 25.501 42.1834 3.78147
H 25.9227 42.7069 2.46664
O 24.1694 40.5272 44.3968
H 24.7303 40.3686 43.6686
H 24.6483 40.1517 45.122
O 30.4398 25.9238 34.7794
H 30.8238 26.6668 34.2462
H 30.9479 25.1351 34.4453
O 28.5555 9.44439 3.3949
H 28.9814 8.70126 3.80546
H 28.6781 9.3488 2.43089
O 27.5498 2.38286 9.27301
H 27.2037 3.21845 9.63855
H 27.7153 1.81863 10.0805
    
    &END COORD
  &END SUBSYS
  &DFT
    BASIS_SET_FILE_NAME  BASIS_SET
    POTENTIAL_FILE_NAME  GTH_POTENTIALS
    &QS
      EPS_DEFAULT 1.0E-10
    &END QS
    &MGRID
      NGRIDS 4
      CUTOFF 135
      REL_CUTOFF 115
    &END MGRID
    &XC
      &XC_FUNCTIONAL PADE
      &END XC_FUNCTIONAL
    &END XC
    &SCF
      SCF_GUESS ATOMIC
      EPS_SCF 1.0E-7
      MAX_SCF 300
      &DIAGONALIZATION  ON
        ALGORITHM STANDARD
      &END DIAGONALIZATION
      &MIXING  T
        METHOD BROYDEN_MIXING
        ALPHA 0.4
        NBROYDEN 8
      &END MIXING
    &END SCF
  &END DFT
  &PRINT
    &FORCES ON
    &END FORCES
  &END PRINT
&END FORCE_EVAL
