&GLOBAL
  PROJECT H2O_bulk
  RUN_TYPE ENERGY_FORCE
  PRINT_LEVEL LOW
&END GLOBAL
&FORCE_EVAL
  METHOD Quickstep
  &SUBSYS
    &KIND H
      ELEMENT   H
      BASIS_SET DZVP-GTH-PBE
      POTENTIAL GTH-PBE-q1
    &END KIND
    &KIND O
      ELEMENT   O
      BASIS_SET DZVP-GTH-PBE
      POTENTIAL GTH-PBE-q6
    &END KIND
    &CELL
      A     46.937    0.000000000    0.000000000
      B     0.000000000    44.121    0.000000000
      C     0.000000000    0.000000000    45.182
    &END CELL
    &COORD

O 1.66348 2.96976 6.82091
H 1.57362 3.06429 7.75518
H 1.7908 3.90614 6.56515
O 5.06103 2.11491 43.3238
H 4.22911 2.63813 43.3465
H 4.96266 1.47155 42.5986
O 5.83565 1.82772 1.33732
H 5.11176 1.47726 1.82364
H 5.63433 1.65204 0.382637
O 4.96541 4.87202 1.82153
H 5.71919 5.1646 2.41545
H 5.10117 3.97983 1.51563
O 1.2559 5.46417 5.81364
H 2.00533 5.74996 5.34168
H 0.49348 5.41048 5.16359
O 4.00746 6.33903 44.5908
H 4.64009 6.01553 0.0266184
H 4.46636 7.03874 44.1589
O 3.1086 4.26673 42.8559
H 3.6345 4.99852 43.2237
H 2.22224 4.36582 42.994
O 2.4311 5.66576 3.28841
H 3.28714 5.41982 3.02109
H 1.98652 5.64479 2.49011
O 4.82916 10.426 43.9769
H 4.19099 10.6539 43.2733
H 4.44851 10.813 44.7457
O 6.43729 7.93545 44.2906
H 6.88004 8.12138 45.0997
H 6.16719 8.82027 44.0144
O 12.797 36.1601 27.9202
H 12.0942 35.5403 27.8471
H 12.3262 36.9865 28.0597
O 1.51723 1.09981 4.76253
H 0.582909 0.914763 4.82258
H 1.63377 1.6595 5.56033
O 3.74515 0.499324 3.07581
H 4.25276 43.8927 3.47779
H 3.02126 0.671297 3.65401
O 16.1308 42.4116 6.315
H 16.348 41.9564 7.11217
H 16.5091 43.3155 6.36694
O 7.27166 5.62445 2.95056
H 7.41521 6.05492 3.78147
H 7.8762 4.88986 3.11847
O 46.6688 13.7844 1.61738
H 47.3839 14.3863 1.6536
H 46.9836 13.1279 2.21432
O 13.5015 43.3421 0.220648
H 13.6404 42.7007 0.927257
H 13.7965 42.8103 44.659
O 10.2626 1.53573 42.6014
H 10.6838 1.85649 41.794
H 9.33608 1.62528 42.4414
O 15.555 6.22586 4.25358
H 15.0964 6.97495 4.54216
H 14.8706 5.5901 3.90865
O 13.3338 4.30414 4.23398
H 12.5217 4.56825 4.66029
H 13.0536 3.91627 3.35945
O 7.56909 1.81238 5.70808
H 6.63958 1.59619 5.51552
H 8.10351 0.987703 5.85535
O 8.97044 1.04768 1.64208
H 9.67532 1.12305 0.96772
H 8.0932 1.29896 1.26725
O 16.1196 41.1065 3.70322
H 15.8827 41.5651 4.49358
H 17.0324 41.2937 3.57448
O 14.1964 2.01969 5.79157
H 14.0816 2.67386 5.06434
H 13.9347 2.59602 6.52583
O 8.78106 3.23974 3.57559
H 8.32871 2.74808 4.23694
H 8.86163 2.66238 2.79597
O 13.2508 2.89211 1.87571
H 14.0792 2.79141 1.3249
H 12.6376 2.36406 1.33203
O 11.3522 0.91296 0.0978153
H 11.2742 1.09257 44.3494
H 12.0523 0.265872 0.319532
O 14.159 41.3301 1.78548
H 13.7675 40.7402 2.42618
H 14.9434 41.5621 2.36644
O 16.9965 1.10444 6.17007
H 17.5898 1.33812 5.42226
H 16.1678 1.49377 5.85755
O 12.2394 43.6341 6.51924
H 12.4854 42.7387 6.40551
H 12.9853 0.0599751 6.24587
O 10.6814 4.91161 5.58474
H 10.2705 5.21759 6.38876
H 9.96949 4.46117 5.06879
O 9.44398 43.9457 6.19449
H 10.3933 44.0923 6.13589
H 9.33115 43.4272 6.98057
O 18.0519 2.19287 3.92313
H 18.4598 3.05691 4.07045
H 18.6142 1.77327 3.32152
O 17.9308 9.29829 0.847779
H 18.2857 8.87406 0.0976848
H 17.8223 8.55909 1.49146
O 24.5663 7.11249 2.77023
H 24.296 6.71078 1.92502
H 24.5978 8.0516 2.48758
O 23.1747 6.43628 5.49498
H 23.7263 7.02223 4.99164
H 23.3756 5.59574 5.11453
O 20.6786 0.473628 9.05503
H 20.5973 0.0884578 9.93139
H 21.6406 0.379446 8.7944
O 20.3588 6.33033 5.8865
H 20.2304 6.02967 6.83985
H 21.3244 6.39949 5.8
O 16.4698 11.5957 0.990837
H 16.1628 10.7966 0.614404
H 17.3403 11.3402 1.3263
O 23.3276 43.7346 8.88015
H 24.1681 44.0744 9.15874
H 23.5092 42.8079 8.88607
O 19.4779 5.43273 8.36276
H 19.4067 4.42992 8.28976
H 19.2778 5.5959 9.29077
O 18.5899 4.95019 4.36704
H 17.7338 5.33747 4.6056
H 19.2572 5.42907 4.85241
O 18.0375 6.39873 1.84569
H 18.4281 5.90481 2.59243
H 17.1339 6.10284 1.91004
O 17.2314 14.0625 2.27724
H 16.5952 13.424 1.99706
H 16.6885 14.8661 2.30526
O 28.6041 42.5795 7.68892
H 28.4401 42.361 6.76831
H 28.9938 41.8344 8.08218
O 26.0657 43.8946 9.29566
H 26.6959 0.476375 9.61604
H 26.6537 43.2532 8.90662
O 24.6322 5.5815 8.52729
H 24.3889 6.37837 8.99862
H 24.4625 5.9142 7.61918
O 19.0163 2.49554 8.18572
H 18.3996 2.19376 7.5113
H 19.517 1.75294 8.58556
O 28.371 41.2813 4.9019
H 27.6623 41.4634 4.34303
H 29.1589 41.4254 4.40644
O 23.2238 7.75902 42.3411
H 22.985 8.24696 41.5499
H 23.9402 8.32989 42.75
O 23.8803 10.5738 42.5541
H 24.5828 11.176 42.3611
H 23.6572 10.7568 43.4782
O 30.9152 7.56319 4.3593
H 30.3649 7.53587 5.15598
H 30.7105 6.66685 4.05681
O 30.3469 3.88511 7.91388
H 31.0476 3.18686 7.84715
H 29.5413 3.39492 8.10324
O 29.6439 5.17669 5.32193
H 30.0058 4.8724 6.14704
H 28.7687 4.86066 5.10012
O 25.4468 43.3452 0.623997
H 25.2215 42.7966 45.0502
H 26.0421 44.1005 0.28611
O 32.6335 2.39571 7.75335
H 32.8788 1.60875 7.27453
H 33.2894 2.38912 8.47849
O 26.5806 4.28675 10.1317
H 26.0129 4.80031 9.51384
H 26.3551 4.73541 11
O 23.5413 6.13643 0.221396
H 22.6541 6.36234 -0.0543776
H 23.9347 5.65601 44.6586
O 23.9671 5.08711 42.8598
H 24.6756 4.70729 42.4157
H 23.6791 5.88874 42.4561
O 26.9492 41.7803 2.58712
H 27.2121 41.1741 1.86535
H 26.3001 42.2888 2.17652
O 24.0106 41.5374 44.5566
H 23.4669 42.2639 44.7966
H 23.4801 41.1251 43.833
O 29.2392 24.24 37.1779
H 28.5482 23.58 37.3842
H 28.6426 25.0001 36.9042
O 29.8257 9.62571 2.73049
H 30.1303 8.88784 3.23413
H 30.3304 9.43659 1.8962
O 27.805 1.93278 9.95729
H 27.2925 2.76628 9.9797
H 28.2572 1.87169 10.808
    
    &END COORD
  &END SUBSYS
  &DFT
    BASIS_SET_FILE_NAME  BASIS_SET
    POTENTIAL_FILE_NAME  GTH_POTENTIALS
    &QS
      EPS_DEFAULT 1.0E-10
    &END QS
    &MGRID
      NGRIDS 4
      CUTOFF 135
      REL_CUTOFF 115
    &END MGRID
    &XC
      &XC_FUNCTIONAL PADE
      &END XC_FUNCTIONAL
    &END XC
    &SCF
      SCF_GUESS ATOMIC
      EPS_SCF 1.0E-7
      MAX_SCF 300
      &DIAGONALIZATION  ON
        ALGORITHM STANDARD
      &END DIAGONALIZATION
      &MIXING  T
        METHOD BROYDEN_MIXING
        ALPHA 0.4
        NBROYDEN 8
      &END MIXING
    &END SCF
  &END DFT
  &PRINT
    &FORCES ON
    &END FORCES
  &END PRINT
&END FORCE_EVAL
