&GLOBAL
  PROJECT H2O_bulk
  RUN_TYPE ENERGY_FORCE
  PRINT_LEVEL LOW
&END GLOBAL
&FORCE_EVAL
  METHOD Quickstep
  &SUBSYS
    &KIND H
      ELEMENT   H
      BASIS_SET DZVP-GTH-PBE
      POTENTIAL GTH-PBE-q1
    &END KIND
    &KIND O
      ELEMENT   O
      BASIS_SET DZVP-GTH-PBE
      POTENTIAL GTH-PBE-q6
    &END KIND
    &CELL
      A     46.937    0.000000000    0.000000000
      B     0.000000000    44.121    0.000000000
      C     0.000000000    0.000000000    45.182
    &END CELL
    &COORD

O 46.6038 44.1507 2.57819
H 45.8689 43.5511 2.86112
H 46.1877 0.798702 2.24482
O 5.08859 3.50329 43.9685
H 5.47838 4.21038 43.4051
H 4.91413 2.81141 43.3544
O 5.37169 3.1134 1.59246
H 5.07837 2.18558 1.7224
H 5.32081 3.38838 0.657807
O 3.69002 4.65065 3.37104
H 4.19769 4.75308 4.22101
H 4.21598 4.07351 2.7699
O 45.7916 2.78538 2.27274
H 46.3618 3.36639 2.78685
H 45.1494 3.42757 2.09972
O 3.24476 7.82369 2.60162
H 3.26213 6.8777 2.64388
H 4.15672 8.07843 2.82527
O 5.41922 3.61187 41.2738
H 4.82815 3.73723 40.5052
H 6.21633 3.77473 40.8679
O 0.893465 4.00273 3.68134
H 1.78381 3.98211 3.24792
H 0.73067 4.83856 4.1647
O 1.81727 9.13955 0.314077
H 2.44849 8.6236 0.871211
H 1.66815 8.6801 44.7031
O 6.25287 8.35361 3.08342
H 6.95626 9.00258 2.98754
H 6.33667 8.04346 3.95729
O 25.1503 26.0022 33.9274
H 26.0799 26.2711 33.8514
H 25.198 25.0894 33.7705
O 2.42789 43.4684 2.33337
H 2.24675 42.5156 2.28427
H 1.52475 43.7537 2.37866
O 4.80234 0.540511 2.10208
H 5.40554 -0.169355 1.9474
H 3.93643 0.106485 2.1812
O 14.3613 43.0379 7.98493
H 15.003 42.6858 8.62969
H 14.9649 43.3417 7.24398
O 5.72396 5.97244 5.40036
H 5.43361 6.08699 6.31336
H 6.44988 5.34289 5.55432
O 42.7742 25.6737 32.4394
H 43.2274 26.5327 32.5999
H 42.9499 25.2166 33.308
O 13.9167 0.431644 1.9115
H 13.2777 43.8575 2.19394
H 14.3571 0.0877963 1.14435
O 11.0641 5.42926 44.1561
H 10.9832 6.2182 43.5812
H 11.5663 4.88113 43.5321
O 15.8293 5.78193 5.66146
H 15.9123 6.54401 6.2183
H 14.8363 5.75238 5.52391
O 13.2788 4.6815 5.13665
H 12.451 4.98187 5.55149
H 13.1067 4.13452 4.34157
O 7.94265 2.22667 8.0375
H 7.06602 1.98511 8.39318
H 8.60344 1.89236 8.64289
O 7.95923 2.70162 3.19156
H 8.55575 2.81217 2.4732
H 7.14343 2.95518 2.7201
O 13.7723 41.2779 5.53875
H 13.9829 41.8244 6.33477
H 14.5477 40.8177 5.2559
O 14.8565 2.95857 6.67246
H 14.1631 3.51557 6.19758
H 15.6399 3.47454 6.39387
O 8.27313 3.79123 5.77693
H 8.1263 3.13515 6.482
H 8.06981 3.34341 4.95988
O 13.1743 3.32272 2.77855
H 13.4249 2.50813 2.38945
H 12.287 3.56833 2.44485
O 10.6337 4.18992 1.63489
H 10.6333 5.06404 2.03878
H 10.4988 4.45566 0.733269
O 12.2916 42.5825 3.39276
H 11.6083 42.9802 3.87982
H 12.8654 42.265 4.0502
O 15.4677 0.264985 5.61514
H 16.3245 0.356298 5.15991
H 15.1843 1.12951 5.96019
O 12.9608 1.59807 8.95331
H 13.2465 0.670568 8.86424
H 13.3861 2.11364 8.2182
O 10.7796 4.72954 6.70024
H 10.5367 5.536 7.15614
H 9.89474 4.44797 6.4281
O 10.5266 1.66234 9.86005
H 11.207 1.90419 9.20977
H 11.0195 1.53567 10.6629
O 18.0552 0.881971 4.57999
H 18.4672 1.68958 4.93053
H 18.8134 0.273967 4.59035
O 17.6578 6.50324 43.7134
H 16.9444 6.73295 44.255
H 18.1642 5.92622 44.3125
O 23.5172 3.14184 3.00027
H 23.9134 3.96238 2.75975
H 23.2033 2.91967 2.16023
O 22.6855 2.57857 5.55511
H 22.9874 2.73194 4.65662
H 22.9581 1.69112 5.84929
O 20.656 43.9372 8.82289
H 20.0623 43.4773 8.21824
H 21.4838 44.0996 8.34395
O 19.6978 2.92787 5.76572
H 19.5657 3.31854 6.60093
H 20.651 2.87917 5.66127
O 19.3869 8.32166 42.3753
H 19.5412 7.75869 41.6105
H 18.898 7.85082 43.053
O 23.1415 0.139489 7.12943
H 24.0214 0.297038 7.58288
H 23.2816 43.4825 6.56453
O 19.4311 4.25902 8.48415
H 19.117 3.60199 9.08794
H 18.7706 4.91631 8.47729
O 18.4939 5.81125 4.09855
H 17.6862 6.06249 4.61773
H 18.851 5.10989 4.67302
O 17.7661 5.07102 1.28308
H 18.0345 5.55356 2.08319
H 17.8976 4.18096 1.53269
O 20.5777 10.7836 43.3178
H 19.9982 10.6648 42.5381
H 20.4261 9.85885 43.5746
O 26.1916 42.7953 5.33948
H 26.8552 43.2522 4.75536
H 26.0164 41.8735 5.05053
O 25.6802 0.0906571 7.83418
H 26.0941 0.855566 8.00086
H 26.0428 43.8793 6.93015
O 22.6341 4.29266 7.70327
H 21.7413 4.19657 8.13035
H 22.6971 3.62877 6.95056
O 19.5114 2.08264 10.102
H 19.0893 1.58275 10.7354
H 19.9277 1.41226 9.48596
O 28.2622 0.320581 4.04959
H 28.2292 0.323337 3.12292
H 28.2706 1.21286 4.4278
O 26.2289 9.31515 43.5473
H 26.6197 10.0205 42.9927
H 25.547 8.87662 43.0117
O 27.1051 10.4648 40.8891
H 26.6239 10.8105 40.1313
H 28.0042 10.4118 40.5204
O 29.1363 7.62242 6.43647
H 29.5153 7.3222 7.27193
H 28.9691 6.88115 5.87085
O 28.5672 2.84171 6.1726
H 29.3606 2.32853 6.46104
H 28.1407 3.05272 6.97753
O 29.3641 5.19663 4.94405
H 29.1243 4.42132 5.46671
H 29.3166 4.7998 4.10402
O 25.892 42.0799 0.133676
H 25.8754 41.4278 -0.623211
H 24.9947 42.3683 45.2665
O 30.7636 1.54676 7.40048
H 31.6005 1.71241 7.83697
H 30.655 0.602225 7.4117
O 25.1073 4.65527 8.64816
H 24.1495 4.48745 8.46922
H 25.1208 5.54961 8.40308
O 24.7624 5.78578 2.50806
H 25.7158 5.88976 2.64166
H 24.5119 6.46336 1.85527
O 25.38 8.27871 1.18188
H 25.1293 9.1667 1.53634
H 25.8344 8.58687 0.378284
O 28.1284 43.9782 1.32493
H 27.706 43.1801 1.17349
H 28.3406 0.309666 0.478755
O 25.3803 39.0717 44.8735
H 24.5052 38.6728 44.9521
H 25.8829 38.3527 45.1381
O 33.9121 30.1795 28.4274
H 33.3181 30.8437 28.8442
H 34.4226 30.8014 27.8281
O 28.037 10.5029 7.2338
H 28.0633 9.52164 7.01786
H 28.7241 10.8354 6.70275
O 27.0409 2.88587 8.55058
H 26.3998 3.66625 8.56197
H 27.38 2.7477 9.48235
    
    &END COORD
  &END SUBSYS
  &DFT
    BASIS_SET_FILE_NAME  BASIS_SET
    POTENTIAL_FILE_NAME  GTH_POTENTIALS
    &QS
      EPS_DEFAULT 1.0E-10
    &END QS
    &MGRID
      NGRIDS 4
      CUTOFF 135
      REL_CUTOFF 115
    &END MGRID
    &XC
      &XC_FUNCTIONAL PADE
      &END XC_FUNCTIONAL
    &END XC
    &SCF
      SCF_GUESS ATOMIC
      EPS_SCF 1.0E-7
      MAX_SCF 300
      &DIAGONALIZATION  ON
        ALGORITHM STANDARD
      &END DIAGONALIZATION
      &MIXING  T
        METHOD BROYDEN_MIXING
        ALPHA 0.4
        NBROYDEN 8
      &END MIXING
    &END SCF
  &END DFT
  &PRINT
    &FORCES ON
    &END FORCES
  &END PRINT
&END FORCE_EVAL
