&GLOBAL
  PROJECT H2O_bulk
  RUN_TYPE ENERGY_FORCE
  PRINT_LEVEL LOW
&END GLOBAL
&FORCE_EVAL
  METHOD Quickstep
  &SUBSYS
    &KIND H
      ELEMENT   H
      BASIS_SET DZVP-GTH-PBE
      POTENTIAL GTH-PBE-q1
    &END KIND
    &KIND O
      ELEMENT   O
      BASIS_SET DZVP-GTH-PBE
      POTENTIAL GTH-PBE-q6
    &END KIND
    &CELL
      A     46.937    0.000000000    0.000000000
      B     0.000000000    44.121    0.000000000
      C     0.000000000    0.000000000    45.182
    &END CELL
    &COORD

O 46.8609 0.801618 3.47781
H 46.0488 0.377887 3.60854
H -0.142868 1.77191 3.65342
O 4.20066 2.57 44.2186
H 4.35287 3.17974 43.4735
H 3.51731 1.94873 44.0344
O 5.31776 2.66758 1.61605
H 5.00596 1.78502 1.86429
H 5.02197 2.82573 0.673189
O 4.59004 5.08392 3.03028
H 5.04274 4.98209 3.87813
H 4.84376 4.26165 2.56283
O 0.210213 3.73955 4.45939
H 0.589601 4.44322 3.97328
H 47.6414 3.8697 5.25858
O 4.63691 7.51524 0.315922
H 4.52429 7.27779 1.22314
H 5.4666 8.04995 0.34617
O 5.24449 4.63293 42.1726
H 5.70305 5.38075 42.6275
H 5.19281 4.85408 41.2847
O 2.03551 5.74136 3.69404
H 2.94148 5.58509 3.27135
H 2.01375 6.65678 3.49053
O 2.34098 9.38305 45.1
H 3.09106 8.80412 0.0996256
H 1.90142 8.86472 44.4526
O 7.01124 9.16466 44.5114
H 6.9083 9.13946 43.5636
H 7.52313 9.94712 -0.490311
O 19.8289 30.4425 31.2813
H 19.6555 29.5268 31.1614
H 19.1047 30.7014 31.8855
O 2.23796 43.3703 4.4578
H 2.41274 43.7106 5.32797
H 1.50546 43.9086 4.17122
O 4.45495 44.2533 2.62155
H 4.54698 43.3343 2.23466
H 3.81087 44.0727 3.3229
O 15.5528 42.5845 7.42244
H 16.0346 42.1444 8.1416
H 16.194 43.2381 7.14419
O 5.63966 5.11759 5.56783
H 4.94174 4.65449 6.07791
H 6.43344 4.7583 5.939
O 44.479 20.4614 38.7561
H 44.2263 21.3302 38.4364
H 45.3631 20.5007 38.6795
O 12.7166 0.671426 1.21546
H 13.0317 -0.174565 1.62655
H 13.3125 0.737849 0.485512
O 11.029 4.64084 43.2768
H 11.3682 5.46602 43.631
H 10.2868 4.8627 42.7379
O 15.608 6.43927 4.4925
H 15.2935 7.20025 4.02937
H 14.8418 5.96551 4.86354
O 13.5289 4.4976 4.94753
H 12.5865 4.78847 5.01752
H 13.5691 4.04069 4.09815
O 9.23744 0.93452 6.34584
H 8.56046 0.250555 6.38772
H 9.92653 0.644753 6.9683
O 8.08156 2.72927 1.80025
H 8.65914 2.26169 1.1794
H 7.20268 2.53023 1.63609
O 13.4136 42.0834 4.91618
H 14.1598 42.182 5.51535
H 12.9618 41.3247 5.36121
O 14.677 2.89321 6.80006
H 14.3543 3.37201 6.06168
H 14.7103 3.52532 7.513
O 8.86921 3.24331 4.47313
H 8.69723 2.47297 5.01325
H 8.75666 3.0812 3.51286
O 13.0076 2.99546 2.72791
H 13.1717 2.06233 2.42888
H 12.0938 3.23347 2.42079
O 10.2717 2.1221 0.556224
H 10.5588 2.52293 44.9051
H 10.9541 1.42103 0.692201
O 13.7595 42.5599 2.40672
H 13.3519 41.788 2.03949
H 13.7325 42.4719 3.33158
O 17.0041 1.021 7.40521
H 17.359 1.06343 6.47379
H 16.392 1.72645 7.55848
O 13.574 0.412622 8.11632
H 14.2683 -0.198181 7.90219
H 13.8589 1.17313 7.56824
O 11.1414 5.22618 4.24818
H 10.6742 6.05039 4.34775
H 10.4446 4.54356 4.41815
O 11.0016 -0.0283122 8.30948
H 11.9885 0.066706 8.20148
H 10.891 43.3596 8.89022
O 18.214 1.29023 5.13524
H 18.7217 2.12236 5.22533
H 17.7957 1.34651 4.27128
O 16.7133 7.84343 44.6733
H 15.7771 7.73311 44.9773
H 17.1632 7.03957 44.949
O 24.858 4.96859 4.07478
H 24.7388 5.66111 3.41106
H 25.6579 5.22239 4.57354
O 22.6293 3.70463 5.25766
H 23.1805 4.28512 4.73264
H 23.089 2.89385 5.20211
O 21.5529 0.117297 10.0118
H 21.8888 0.607417 10.7542
H 22.2363 0.0988606 9.32133
O 19.9856 3.42803 5.45506
H 20.0273 3.74605 6.35069
H 20.9532 3.38838 5.16612
O 17.9863 10.2774 43.7958
H 18.6558 9.83509 43.2679
H 17.6287 9.52032 44.3588
O 23.3072 0.292692 7.81355
H 24.2774 0.473498 7.74549
H 23.0029 43.8324 7.11019
O 20.1473 4.26774 8.22909
H 20.1236 3.34795 8.60947
H 19.357 4.66731 8.61137
O 17.7309 4.97297 3.55007
H 17.0906 5.55213 4.01214
H 18.4403 4.81176 4.15086
O 17.7113 5.45864 0.586149
H 17.5689 5.38885 1.52121
H 18.5293 4.93005 0.42808
O 19.3886 12.0055 0.459019
H 18.8268 12.7364 0.254308
H 19.1358 11.2991 45.0442
O 27.4047 42.4695 6.48462
H 27.7721 42.6154 5.64235
H 28.0628 42.1944 7.09358
O 25.9314 0.610659 7.29558
H 26.3853 0.992767 8.09051
H 26.4814 43.898 7.12093
O 22.9424 5.23142 7.78507
H 22.0941 5.03176 8.28219
H 22.7105 4.99356 6.87897
O 19.61 1.69644 9.17334
H 19.081 1.29509 8.57497
H 20.4043 1.16361 9.37343
O 28.3592 44.0181 4.43839
H 27.7367 -0.154412 3.69635
H 28.3762 0.86344 4.69974
O 24.3623 8.51867 43.5762
H 23.4785 8.66028 43.2075
H 24.9266 9.21475 43.2183
O 25.8141 10.558 41.7728
H 25.3422 10.4168 40.9034
H 26.7759 10.659 41.6122
O 28.7489 7.33077 5.99977
H 29.4269 7.60491 6.65421
H 29.189 6.44506 5.67821
O 29.2156 2.62349 6.54373
H 29.9919 2.35364 7.00966
H 28.4721 2.75347 7.1284
O 30.0572 4.961 5.46484
H 29.6029 4.21209 5.93106
H 29.9829 4.58073 4.63474
O 24.8768 42.0258 0.793671
H 24.6325 42.5894 0.0554044
H 24.4643 41.1286 0.611503
O 31.4428 1.91943 8.14579
H 32.3572 1.95817 7.91244
H 31.4038 1.18613 8.77892
O 25.3064 4.55087 8.85004
H 24.3852 4.49931 8.52358
H 25.5534 5.16622 8.13834
O 23.9018 6.66905 2.14138
H 23.5244 7.51554 2.45899
H 24.6015 6.84445 1.43044
O 25.5766 6.62297 0.0751876
H 26.4096 6.99751 0.0161928
H 25.1731 7.01397 44.4782
O 26.1352 43.5264 2.5109
H 25.3181 43.6672 3.00895
H 25.9329 42.7516 1.93595
O 24.7318 39.6503 44.1246
H 25.0718 39.9711 43.2426
H 24.2365 38.8811 43.9197
O 31.888 27.6331 32.1713
H 31.7745 27.0536 32.9582
H 31.2382 28.3143 32.3743
O 28.0632 9.61664 4.51281
H 28.4222 8.77177 4.81805
H 27.2389 9.63316 4.94675
O 27.3732 2.87797 8.74321
H 26.5167 3.36659 8.61921
H 27.8441 3.26133 9.49307
    
    &END COORD
  &END SUBSYS
  &DFT
    BASIS_SET_FILE_NAME  BASIS_SET
    POTENTIAL_FILE_NAME  GTH_POTENTIALS
    &QS
      EPS_DEFAULT 1.0E-10
    &END QS
    &MGRID
      NGRIDS 4
      CUTOFF 135
      REL_CUTOFF 115
    &END MGRID
    &XC
      &XC_FUNCTIONAL PADE
      &END XC_FUNCTIONAL
    &END XC
    &SCF
      SCF_GUESS ATOMIC
      EPS_SCF 1.0E-7
      MAX_SCF 300
      &DIAGONALIZATION  ON
        ALGORITHM STANDARD
      &END DIAGONALIZATION
      &MIXING  T
        METHOD BROYDEN_MIXING
        ALPHA 0.4
        NBROYDEN 8
      &END MIXING
    &END SCF
  &END DFT
  &PRINT
    &FORCES ON
    &END FORCES
  &END PRINT
&END FORCE_EVAL
