&GLOBAL
  PROJECT H2O_bulk
  RUN_TYPE ENERGY_FORCE
  PRINT_LEVEL LOW
&END GLOBAL
&FORCE_EVAL
  METHOD Quickstep
  &SUBSYS
    &KIND H
      ELEMENT   H
      BASIS_SET DZVP-GTH-PBE
      POTENTIAL GTH-PBE-q1
    &END KIND
    &KIND O
      ELEMENT   O
      BASIS_SET DZVP-GTH-PBE
      POTENTIAL GTH-PBE-q6
    &END KIND
    &CELL
      A     46.937    0.000000000    0.000000000
      B     0.000000000    44.121    0.000000000
      C     0.000000000    0.000000000    45.182
    &END CELL
    &COORD

O 1.15449 43.8325 0.631674
H 1.32639 43.1303 1.24865
H 0.740715 0.450442 1.15061
O 4.70895 5.1562 0.581408
H 4.53352 5.70944 45.0146
H 5.00503 4.31298 0.205118
O 5.4634 5.33839 3.08025
H 6.29984 4.8408 3.08301
H 5.25746 5.52059 2.13993
O 3.26325 4.66385 4.89151
H 3.70576 4.54945 5.78708
H 3.97492 4.99939 4.33249
O 0.419389 1.2982 2.6309
H 1.0612 1.50031 3.30417
H 46.5136 1.0304 3.05452
O 1.44405 7.20834 4.65054
H 2.02009 6.49223 4.91245
H 0.563637 7.01569 4.93173
O 5.33408 2.18632 45.1451
H 4.48706 1.7806 44.9552
H 5.95545 1.72078 44.5031
O 2.69641 2.00119 4.26766
H 2.82365 2.99124 4.43945
H 2.92137 1.70264 5.14491
O 2.1237 10.2394 5.12744
H 1.8905 9.32867 5.13714
H 2.39285 10.2801 4.23856
O 45.7743 6.1922 5.79077
H 45.6922 5.27111 6.09111
H 44.8582 6.35964 5.554
O 40.3923 13.5073 41.2795
H 40.8884 14.1933 40.909
H 40.7169 12.7423 40.7656
O 3.13739 0.802244 44.3048
H 2.70265 0.899596 43.48
H 2.49961 0.398504 44.8817
O 6.35295 0.769665 2.47512
H 5.91842 1.30061 1.72352
H 5.54734 0.563804 2.9752
O 13.7398 43.0656 11.5519
H 13.0879 42.9513 10.8639
H 13.1632 43.3979 12.2438
O 5.10637 3.49762 6.68337
H 5.98194 3.80571 6.36645
H 5.30265 3.52779 7.61077
O 43.6422 38.8702 16.5832
H 43.5783 38.0454 15.9619
H 44.5944 38.891 16.7366
O 8.90578 1.63967 3.65693
H 8.05328 1.36934 3.3855
H 9.56334 0.900293 3.41904
O 11.2805 6.68651 43.8683
H 11.4402 7.5526 44.2501
H 11.6967 6.72685 42.9933
O 14.7026 7.85081 5.62824
H 14.6712 8.42023 6.42017
H 13.7343 7.64672 5.52933
O 11.6238 7.9537 6.39284
H 11.3883 7.52772 7.25552
H 10.7799 7.9318 5.90009
O 9.4788 1.74041 6.43423
H 9.38298 1.71934 5.4297
H 9.00022 0.968345 6.76381
O 8.3242 6.25833 4.38531
H 8.61749 5.68965 3.67565
H 7.49717 6.61043 4.0643
O 12.8065 43.3785 4.54873
H 13.5047 43.2176 3.91866
H 13.2147 43.9387 5.19933
O 11.9139 1.57764 8.37529
H 11.1586 1.78048 7.77561
H 11.94 2.37591 8.91427
O 7.77153 4.38079 6.39052
H 8.30475 3.62037 6.17971
H 7.90759 4.8802 5.5723
O 8.32206 4.11377 2.41687
H 8.74275 3.37055 2.85444
H 8.92472 4.14659 1.6717
O 10.4207 3.97752 0.596335
H 10.8849 3.18751 0.372664
H 10.7388 4.73494 0.150063
O 10.4448 43.4331 3.1623
H 9.98845 42.6086 3.18759
H 11.2516 43.4472 3.69103
O 14.0702 0.588347 6.66441
H 14.9306 0.961346 6.53562
H 13.6437 1.15182 7.27685
O 11.2552 43.1337 9.13317
H 11.7176 42.4568 8.65761
H 11.7805 43.9224 9.04689
O 9.51372 6.52232 7.87171
H 9.27838 6.851 8.73319
H 8.87077 5.83277 7.63211
O 8.73113 43.5742 7.79508
H 9.56688 43.5501 8.31253
H 8.7996 42.6973 7.36675
O 16.5843 1.61265 6.35422
H 16.9737 2.47765 6.1885
H 17.2757 1.01328 6.25283
O 19.4858 3.95231 0.738807
H 20.304 4.10324 1.24131
H 18.7465 4.29954 1.24305
O 22.3818 4.90955 2.29687
H 23.1773 4.35893 2.13894
H 22.702 5.82747 2.37619
O 21.1837 3.98703 4.72119
H 21.4872 4.37601 3.89568
H 21.7077 3.20972 4.97082
O 19.4983 0.509873 5.62196
H 20.2686 0.777319 5.19011
H 19.4693 43.7123 5.48642
O 18.2847 3.94613 5.73594
H 18.574 3.968 6.67085
H 19.0576 3.71179 5.23962
O 19.516 3.20741 43.1237
H 18.6441 2.88266 42.976
H 19.6126 3.40761 44.0745
O 22.5275 1.51108 4.99984
H 22.9892 1.21746 5.84646
H 23.0049 1.13991 4.21086
O 19.9731 3.7589 8.26824
H 20.3999 2.8903 8.15392
H 19.716 3.79398 9.17891
O 16.73 6.20539 4.483
H 16.0475 6.83965 4.79003
H 17.143 5.85629 5.23152
O 17.4099 4.58818 2.48372
H 17.4723 3.96924 3.21947
H 17.208 5.42264 2.9664
O 21.6187 1.82842 41.6169
H 20.7561 2.16113 42.0158
H 21.3611 0.914484 41.4664
O 24.2069 0.230486 3.31653
H 25.147 0.510165 3.29293
H 24.193 43.6653 2.64592
O 23.8277 0.69037 7.41835
H 24.6748 1.25572 7.5986
H 24.1343 43.9123 7.52894
O 22.6541 5.78643 6.47974
H 22.0604 5.90244 7.23635
H 22.1693 5.12518 5.92378
O 20.9941 1.23982 8.16158
H 21.8558 1.1984 7.84181
H 20.3957 0.952967 7.4119
O 27.034 1.57179 3.43676
H 27.5964 0.953882 3.0919
H 27.5363 1.67525 4.29024
O 28.8977 7.56063 44.8168
H 28.9277 8.26468 44.1935
H 29.8653 7.22 44.8964
O 30.6042 8.76253 1.93322
H 29.7012 8.70379 1.52972
H 30.5362 9.56577 2.4878
O 29.1505 8.15111 8.38301
H 28.9905 8.85574 7.7593
H 28.7312 7.4026 7.95395
O 28.2291 2.33855 6.15275
H 28.9806 1.88783 6.51947
H 27.5643 2.19902 6.83886
O 27.3995 5.51062 5.84681
H 27.8822 4.75 6.02395
H 27.4986 5.49697 4.86202
O 30.7792 41.4448 0.463255
H 31.2189 41.8485 44.9186
H 30.9 40.4636 0.313998
O 30.3495 1.2904 7.8509
H 30.73 1.78773 8.57294
H 30.4173 0.356705 8.12329
O 25.1955 4.95731 7.2255
H 24.2678 5.29997 6.9631
H 25.8684 5.33909 6.65071
O 25.0566 3.92405 1.82599
H 25.5321 3.10096 2.11495
H 25.7661 4.3976 1.32979
O 26.5591 5.34235 0.00631507
H 26.3152 5.28497 44.2653
H 27.1729 6.08105 0.0594566
O 29.1935 43.7191 1.79704
H 29.9745 43.4676 2.26141
H 29.1244 43.1287 1.06204
O 31.4659 40.7143 42.8634
H 31.5238 39.8448 42.4891
H 32.0052 41.2537 42.1901
O 34.0682 39.0673 16.1391
H 34.3147 38.1115 16.1613
H 33.0927 38.9962 16.3786
O 31.8737 7.58343 9.25321
H 30.9927 7.86703 9.02828
H 31.8483 7.39269 10.2219
O 26.1044 2.56667 7.91716
H 25.7296 3.53384 7.68783
H 26.2517 2.53371 8.81852
    
    &END COORD
  &END SUBSYS
  &DFT
    BASIS_SET_FILE_NAME  BASIS_SET
    POTENTIAL_FILE_NAME  GTH_POTENTIALS
    &QS
      EPS_DEFAULT 1.0E-10
    &END QS
    &MGRID
      NGRIDS 4
      CUTOFF 135
      REL_CUTOFF 115
    &END MGRID
    &XC
      &XC_FUNCTIONAL PADE
      &END XC_FUNCTIONAL
    &END XC
    &SCF
      SCF_GUESS ATOMIC
      EPS_SCF 1.0E-7
      MAX_SCF 300
      &DIAGONALIZATION  ON
        ALGORITHM STANDARD
      &END DIAGONALIZATION
      &MIXING  T
        METHOD BROYDEN_MIXING
        ALPHA 0.4
        NBROYDEN 8
      &END MIXING
    &END SCF
  &END DFT
  &PRINT
    &FORCES ON
    &END FORCES
  &END PRINT
&END FORCE_EVAL
