&GLOBAL
  PROJECT H2O_bulk
  RUN_TYPE ENERGY_FORCE
  PRINT_LEVEL LOW
&END GLOBAL
&FORCE_EVAL
  METHOD Quickstep
  &SUBSYS
    &KIND H
      ELEMENT   H
      BASIS_SET DZVP-GTH-PBE
      POTENTIAL GTH-PBE-q1
    &END KIND
    &KIND O
      ELEMENT   O
      BASIS_SET DZVP-GTH-PBE
      POTENTIAL GTH-PBE-q6
    &END KIND
    &CELL
      A     46.937    0.000000000    0.000000000
      B     0.000000000    44.121    0.000000000
      C     0.000000000    0.000000000    45.182
    &END CELL
    &COORD

O 1.47964 0.805736 45.154
H 1.42817 1.50407 44.5329
H 0.91547 1.06033 0.771643
O 5.07378 4.29617 44.9071
H 4.82911 4.96819 44.2771
H 5.16057 3.48437 44.3645
O 5.0413 3.72211 2.29688
H 5.37091 2.86441 1.90399
H 5.01564 4.21418 1.43552
O 2.90176 4.33394 4.65934
H 3.42738 4.37788 5.43991
H 3.51057 4.275 3.87696
O 46.7271 1.49882 2.06658
H 0.0580534 2.22 2.63938
H 46.6755 0.737092 2.57427
O 2.81916 7.52761 4.9557
H 2.62841 6.55209 4.95059
H 2.13039 7.97443 5.50534
O 5.88053 2.14527 42.8717
H 5.3806 1.807 42.1068
H 6.79859 1.81379 42.6519
O 0.572371 3.21379 4.07408
H 1.43396 3.49985 4.30667
H 46.9153 3.54388 4.79405
O 2.44587 8.56512 2.2256
H 2.74799 8.34614 3.13434
H 1.505 8.33758 2.21193
O 0.941521 9.26389 6.08179
H 46.9559 9.20797 5.84668
H 1.15718 10.1896 6.10147
O 33.8341 18.9484 38.0784
H 34.7313 18.6661 37.938
H 33.4047 18.0924 38.0859
O 3.93077 43.8703 0.320217
H 3.83512 43.0599 0.810904
H 3.08059 0.151702 0.241816
O 6.05885 1.37485 0.952729
H 6.63545 1.48234 0.203676
H 5.39483 0.691458 0.771641
O 12.9373 42.8327 8.85846
H 13.463 42.064 9.1212
H 13.5106 43.5593 9.00121
O 4.52068 4.94424 6.9001
H 5.27875 4.58569 7.34254
H 4.79552 5.84169 6.84061
O 40.7574 33.7994 22.818
H 40.4317 33.7868 21.9444
H 40.9042 32.8322 22.9975
O 9.72215 0.725982 3.38652
H 9.06926 0.069465 3.05483
H 10.5542 0.230935 3.36276
O 9.52218 6.60032 43.262
H 9.50312 7.54895 43.4078
H 8.62365 6.37569 42.9274
O 14.6461 5.12835 5.85937
H 14.6195 6.00672 6.21298
H 13.7521 4.99154 5.52389
O 12.0726 4.32643 4.98034
H 11.3303 4.62174 5.4366
H 11.7239 3.98229 4.09153
O 9.71196 2.27179 7.0592
H 9.65587 1.62685 6.31885
H 9.51101 1.77654 7.88223
O 6.72966 4.37225 4.33644
H 7.61984 4.33669 3.94558
H 6.19757 4.1131 3.57817
O 13.566 42.9794 5.68537
H 13.1889 43.016 6.58332
H 14.3977 43.4598 5.8744
O 12.8046 2.7596 8.03682
H 12.1274 2.74117 7.35676
H 13.4102 3.43142 7.71296
O 7.38186 4.13273 7.17913
H 8.12936 3.56091 7.24588
H 7.26181 4.14262 6.23637
O 9.38994 3.58728 3.00096
H 9.62126 2.67747 3.04337
H 9.45172 3.90698 2.02951
O 10.3496 5.35949 0.65878
H 10.5459 6.03307 1.27376
H 10.3145 5.69122 44.9056
O 12.2251 43.5864 3.37341
H 12.9732 43.4256 2.77877
H 12.6421 43.4546 4.23612
O 15.2322 0.727015 7.20718
H 16.1756 0.888898 7.16219
H 14.8323 1.5351 7.51278
O 11.6152 1.6342 10.42
H 11.8505 0.719649 10.5625
H 12.228 2.03338 9.79433
O 9.86688 5.72432 6.68208
H 9.6706 6.52865 6.21348
H 8.98559 5.34278 6.88684
O 9.0183 1.35396 9.62105
H 9.76945 1.6721 10.1832
H 8.28522 1.98859 9.71644
O 17.9834 0.982609 6.88252
H 18.41 1.6412 6.29891
H 18.6799 0.335615 7.09891
O 19.975 5.13747 0.0350826
H 20.8072 5.02379 0.526683
H 19.2662 5.16851 0.635125
O 22.2781 4.66372 2.51667
H 22.8487 4.54934 1.71048
H 22.567 5.4684 2.95748
O 22.1871 2.74869 4.56744
H 22.4275 3.2032 3.77993
H 22.5854 1.89912 4.57312
O 20.601 43.4491 6.85182
H 21.4485 43.4852 6.39303
H 20.4684 42.4925 6.91063
O 19.4498 3.08742 5.81549
H 19.6669 3.45524 6.67641
H 20.3045 2.96275 5.32824
O 20.052 6.10402 42.5658
H 19.1175 5.94005 42.4028
H 20.0513 5.9137 43.5174
O 23.2226 0.194165 5.35042
H 23.8159 0.386327 6.09942
H 23.8342 44.0528 4.65277
O 20.7731 3.61222 8.27968
H 20.8967 2.66489 8.61379
H 20.3352 4.09339 8.96465
O 17.0563 4.40959 4.27773
H 16.2498 4.7108 4.7615
H 17.6622 3.95847 4.88498
O 17.6638 5.28332 1.57996
H 16.8352 5.38727 1.11626
H 17.4722 5.06842 2.52436
O 21.2464 7.11629 40.1738
H 20.7342 6.7342 40.9168
H 21.1128 8.05532 40.1366
O 24.8276 43.6077 3.10999
H 25.7062 43.8148 3.21697
H 24.6761 43.9259 2.23872
O 24.8746 0.659769 7.62195
H 25.4015 1.44526 7.9116
H 24.2347 0.514425 8.28651
O 23.2303 4.35741 6.82005
H 22.5626 4.22066 7.43351
H 22.8764 3.85967 6.0798
O 21.0781 1.05748 9.14313
H 21.1239 0.844283 10.1199
H 20.7218 0.355021 8.64007
O 27.6325 0.749104 3.44918
H 28.4892 0.50067 3.26233
H 27.7446 1.34472 4.2482
O 27.616 8.00802 1.32481
H 27.9848 8.31958 2.10723
H 28.027 8.52005 0.668466
O 28.8646 9.39861 44.102
H 28.5727 8.93728 43.2962
H 29.2805 10.2379 43.7603
O 29.5501 7.00947 7.68532
H 30.2073 6.30804 7.81384
H 28.856 6.63181 7.13532
O 28.3539 2.72599 6.53556
H 29.1969 2.28904 6.69448
H 27.766 2.67964 7.31326
O 27.6653 5.50698 6.13123
H 27.9009 4.57694 6.35816
H 27.6409 5.65171 5.13065
O 29.6616 41.6866 0.415343
H 28.9303 41.7461 -0.220482
H 29.5147 40.9042 0.878477
O 31.1133 2.11225 6.36349
H 31.6882 2.70619 5.89731
H 31.6528 1.85699 7.13023
O 25.5561 5.16134 7.73111
H 24.6865 5.06048 7.30173
H 26.2485 5.45663 7.11706
O 24.1578 4.38222 0.309925
H 24.0603 3.60228 -0.269319
H 24.9264 4.87885 0.111517
O 26.1835 6.15509 45.1252
H 26.9031 6.57147 44.6377
H 26.36 6.21834 46.0431
O 30.0681 44.0002 2.34803
H 30.9555 -0.357399 2.71766
H 30.0139 43.5386 1.52716
O 27.498 40.6486 44.3065
H 26.6018 40.8916 44.2876
H 27.4542 39.6918 44.4629
O 36.606 34.6474 22.1313
H 36.1536 33.8858 21.6967
H 35.8605 35.2627 22.1888
O 30.1188 9.43031 8.9676
H 29.7942 8.73141 8.40628
H 29.4102 9.92183 9.1503
O 26.51 3.01846 8.60302
H 25.9959 3.88969 8.21291
H 26.8787 3.34077 9.38671
    
    &END COORD
  &END SUBSYS
  &DFT
    BASIS_SET_FILE_NAME  BASIS_SET
    POTENTIAL_FILE_NAME  GTH_POTENTIALS
    &QS
      EPS_DEFAULT 1.0E-10
    &END QS
    &MGRID
      NGRIDS 4
      CUTOFF 135
      REL_CUTOFF 115
    &END MGRID
    &XC
      &XC_FUNCTIONAL PADE
      &END XC_FUNCTIONAL
    &END XC
    &SCF
      SCF_GUESS ATOMIC
      EPS_SCF 1.0E-7
      MAX_SCF 300
      &DIAGONALIZATION  ON
        ALGORITHM STANDARD
      &END DIAGONALIZATION
      &MIXING  T
        METHOD BROYDEN_MIXING
        ALPHA 0.4
        NBROYDEN 8
      &END MIXING
    &END SCF
  &END DFT
  &PRINT
    &FORCES ON
    &END FORCES
  &END PRINT
&END FORCE_EVAL
