&GLOBAL
  PROJECT H2O_bulk
  RUN_TYPE ENERGY_FORCE
  PRINT_LEVEL LOW
&END GLOBAL
&FORCE_EVAL
  METHOD Quickstep
  &SUBSYS
    &KIND H
      ELEMENT   H
      BASIS_SET DZVP-GTH-PBE
      POTENTIAL GTH-PBE-q1
    &END KIND
    &KIND O
      ELEMENT   O
      BASIS_SET DZVP-GTH-PBE
      POTENTIAL GTH-PBE-q6
    &END KIND
    &CELL
      A     46.937    0.000000000    0.000000000
      B     0.000000000    44.121    0.000000000
      C     0.000000000    0.000000000    45.182
    &END CELL
    &COORD

O 0.496282 -0.217157 0.542994
H -0.401168 -0.658144 45.6347
H 0.389607 0.414417 1.22909
O 5.48042 4.30505 44.4153
H 5.10278 5.12179 44.1593
H 5.47165 3.68584 43.6261
O 5.28006 3.2681 1.82246
H 5.14713 2.2963 1.81927
H 5.36464 3.6643 0.948887
O 3.50572 4.90737 4.39328
H 4.11778 4.55408 5.11876
H 4.0406 4.70628 3.62527
O 46.8001 1.89868 2.0612
H 0.363557 2.47365 2.53375
H 46.539 2.51976 1.33658
O 3.21864 8.11385 3.83912
H 3.25087 7.23967 4.26927
H 2.99655 8.68306 4.53529
O 5.88189 2.4858 42.4009
H 5.55807 1.54823 42.3686
H 6.0964 2.67832 41.5129
O 1.05124 3.33945 4.10109
H 1.93378 3.79455 4.08016
H 0.988035 2.82448 4.87528
O 2.00554 8.63856 1.43075
H 2.32282 8.21391 2.25811
H 2.76941 8.56041 0.839097
O 2.72512 9.90732 6.07382
H 2.82247 9.78969 7.03378
H 2.16781 10.6971 6.05662
O 30.8174 21.3056 36.6417
H 30.2306 22.0918 36.6322
H 31.5528 21.6256 36.1496
O 3.13046 43.0678 0.175467
H 3.34055 42.268 44.9193
H 2.15294 43.0445 0.315487
O 5.10154 0.545266 1.43117
H 5.54204 -0.191152 1.89533
H 4.33028 0.0686264 1.14708
O 13.6478 42.6939 8.99366
H 13.8173 41.7903 9.23641
H 14.5161 43.0062 8.62673
O 5.23355 3.83796 6.26543
H 4.95517 3.96205 7.16296
H 6.08653 4.26979 6.16838
O 41.1132 31.0841 26.0183
H 40.4858 31.5215 26.6693
H 40.5535 30.3036 25.7196
O 10.3204 0.917586 2.13996
H 9.50135 0.568383 2.45085
H 11.0624 0.390287 2.52883
O 9.65691 5.75625 44.314
H 8.93102 5.16447 44.0857
H 10.4424 5.34063 43.9839
O 15.0574 4.52227 5.36057
H 15.2559 5.50658 5.27232
H 14.0862 4.40243 5.41018
O 12.3807 4.28383 5.60716
H 11.937 5.11523 5.78441
H 11.7731 3.89923 4.85928
O 8.87454 3.11341 7.65006
H 8.64446 2.26936 7.29074
H 9.16056 2.9037 8.57426
O 7.51803 4.21812 3.33584
H 8.1111 4.72469 2.77571
H 6.72975 3.97435 2.84538
O 13.1805 42.7801 5.83411
H 12.834 42.5423 6.68421
H 14.1485 42.7124 5.97817
O 13.9609 2.40681 7.40311
H 13.2067 2.7668 6.95306
H 14.6645 3.01566 7.15569
O 7.62767 4.91121 5.9702
H 8.02258 4.16829 6.50876
H 7.70596 4.61007 5.02259
O 11.1598 3.39248 3.31854
H 10.6577 2.58972 3.13849
H 10.6313 4.13778 2.84487
O 10.0215 5.49005 1.89288
H 10.1109 6.45578 1.94965
H 9.85485 5.52114 0.93065
O 12.1303 42.8762 3.22871
H 12.5605 42.0282 3.03075
H 12.485 43.0191 4.15091
O 15.4563 -0.395922 7.09086
H 16.4052 -0.470944 6.89476
H 15.2936 0.545178 7.04309
O 12.1972 1.03924 10.1655
H 12.1576 0.067121 9.99032
H 12.7959 1.40234 9.48894
O 10.3142 6.80264 6.17194
H 9.88632 7.64719 6.01349
H 9.53947 6.22899 6.33612
O 9.57504 2.12898 9.99751
H 10.4528 1.69027 9.98463
H 9.59586 2.61893 10.8147
O 18.1184 0.0391723 6.46788
H 18.4512 0.944195 6.2214
H 18.9667 -0.380428 6.69778
O 19.9688 5.27498 44.5201
H 20.7142 4.79212 -0.244712
H 19.3061 5.42227 -0.0016559
O 22.2186 3.89862 2.03815
H 23.0308 3.96674 1.48222
H 21.8699 4.82128 2.03399
O 21.9075 3.60341 4.80666
H 21.9943 3.67344 3.80742
H 22.3842 2.78591 5.07981
O 21.0698 43.5143 7.01001
H 21.4875 44.1861 6.47812
H 21.652 42.7688 7.01183
O 19.1841 3.23227 5.87634
H 19.3294 3.77034 6.67954
H 19.9524 3.24638 5.35452
O 20.0192 7.12419 42.4178
H 20.2383 6.50704 41.7114
H 20.0374 6.53586 43.1929
O 23.1033 1.11753 5.92693
H 23.5468 0.982021 6.77474
H 23.5297 0.598976 5.26752
O 20.2208 3.81436 8.57771
H 20.3138 2.89295 8.76324
H 19.8566 4.23816 9.358
O 17.4211 4.63876 3.69228
H 16.5006 4.32751 3.93365
H 17.988 4.25963 4.38774
O 17.8725 5.86518 1.16337
H 18.1926 6.50964 1.78637
H 17.6135 5.20553 1.82305
O 20.7999 9.01003 40.6967
H 20.7462 8.49788 41.54
H 21.6009 8.58639 40.3579
O 24.8871 43.3864 4.72753
H 25.6634 43.7327 4.32933
H 24.9612 42.4504 4.48458
O 24.6724 0.193808 7.9065
H 25.4647 0.705473 8.08751
H 25.0019 43.5686 7.52274
O 22.5747 5.2234 7.47473
H 21.8406 4.82867 7.94931
H 22.3968 4.9216 6.53545
O 20.6434 1.33104 9.25607
H 21.4908 1.18151 9.57451
H 20.5395 0.515845 8.71478
O 27.7282 0.705104 3.94247
H 28.3747 0.412327 3.37761
H 28.1603 1.35401 4.46172
O 27.5636 8.25836 0.646092
H 28.1496 8.72104 1.29943
H 27.8409 8.58986 -0.2001
O 27.7682 9.40457 43.1765
H 28.5339 9.54655 42.6559
H 27.1241 9.91438 42.7448
O 30.1523 7.94838 6.92587
H 30.5819 8.32653 6.12618
H 29.6737 7.11357 6.63402
O 28.7329 2.35234 6.27776
H 29.6325 2.22933 6.53986
H 28.221 1.99329 6.98145
O 28.8209 5.59555 6.37173
H 29.1199 4.71378 6.3722
H 28.3667 5.46989 5.50441
O 28.7648 41.5165 -0.0521624
H 27.955 41.0806 -0.188429
H 29.4888 40.9286 45.1838
O 31.7416 2.36446 6.24175
H 31.9491 2.56 5.31951
H 32.319 1.63744 6.38297
O 25.2568 4.39055 8.47339
H 24.3521 4.56911 8.20242
H 25.6245 5.28057 8.29688
O 24.5073 4.45921 0.619048
H 25.2731 3.92677 45.7481
H 24.8607 5.40741 0.632883
O 25.0709 7.13135 0.54129
H 24.9161 7.40864 44.8125
H 25.7542 7.60248 0.949937
O 29.0958 43.7098 1.67236
H 28.4799 -0.349516 0.896744
H 29.1191 42.7146 1.74089
O 26.4161 40.328 44.9044
H 25.5837 40.5641 44.4449
H 26.305 39.4726 45.2613
O 35.9774 32.9893 24.4746
H 36.8329 33.3544 24.2458
H 36.24 32.0788 24.6152
O 29.0409 9.90974 8.57312
H 29.213 9.13542 7.96077
H 28.1261 10.0723 8.59303
O 26.8657 2.103 8.56655
H 26.4322 2.90279 8.28798
H 26.9774 2.051 9.48913
    
    &END COORD
  &END SUBSYS
  &DFT
    BASIS_SET_FILE_NAME  BASIS_SET
    POTENTIAL_FILE_NAME  GTH_POTENTIALS
    &QS
      EPS_DEFAULT 1.0E-10
    &END QS
    &MGRID
      NGRIDS 4
      CUTOFF 135
      REL_CUTOFF 115
    &END MGRID
    &XC
      &XC_FUNCTIONAL PADE
      &END XC_FUNCTIONAL
    &END XC
    &SCF
      SCF_GUESS ATOMIC
      EPS_SCF 1.0E-7
      MAX_SCF 300
      &DIAGONALIZATION  ON
        ALGORITHM STANDARD
      &END DIAGONALIZATION
      &MIXING  T
        METHOD BROYDEN_MIXING
        ALPHA 0.4
        NBROYDEN 8
      &END MIXING
    &END SCF
  &END DFT
  &PRINT
    &FORCES ON
    &END FORCES
  &END PRINT
&END FORCE_EVAL
