&GLOBAL
  PROJECT H2O_bulk
  RUN_TYPE ENERGY_FORCE
  PRINT_LEVEL LOW
&END GLOBAL
&FORCE_EVAL
  METHOD Quickstep
  &SUBSYS
    &KIND H
      ELEMENT   H
      BASIS_SET DZVP-GTH-PBE
      POTENTIAL GTH-PBE-q1
    &END KIND
    &KIND O
      ELEMENT   O
      BASIS_SET DZVP-GTH-PBE
      POTENTIAL GTH-PBE-q6
    &END KIND
    &CELL
      A     46.937    0.000000000    0.000000000
      B     0.000000000    44.121    0.000000000
      C     0.000000000    0.000000000    45.182
    &END CELL
    &COORD

O 46.7725 44.4946 2.78964
H 45.9708 43.8616 2.77173
H 46.4027 1.18497 2.44241
O 4.9929 3.39973 44.2207
H 5.56343 3.92727 43.6286
H 4.38004 3.04848 43.5897
O 5.46538 2.94632 1.65906
H 5.11971 2.09239 1.86575
H 5.40979 3.08649 0.693483
O 3.65278 4.72255 2.92939
H 3.96946 4.75472 3.86659
H 4.10498 4.05773 2.34687
O 45.7414 2.91427 2.44498
H 46.27 3.28928 3.19045
H 44.8806 2.89764 2.85886
O 3.67344 8.2275 2.28692
H 3.32228 7.44834 2.63842
H 4.62579 8.24347 2.3545
O 5.35724 3.84384 41.3669
H 4.67537 4.4044 40.9092
H 6.05335 3.67881 40.7139
O 0.822706 4.3313 3.91804
H 1.66262 4.42607 3.51888
H 0.791584 5.13135 4.48767
O 1.8154 9.03951 0.283863
H 2.67938 8.98402 0.682456
H 1.81414 8.24419 45.0144
O 6.46601 8.48674 2.3157
H 6.9836 7.94304 1.68783
H 6.6526 7.99319 3.11593
O 24.229 26.7021 33.5061
H 24.7827 27.4998 33.4681
H 24.7613 26.1341 32.9855
O 2.28034 43.2699 2.78874
H 2.0093 42.505 3.35209
H 1.43872 43.7858 2.9436
O 4.93711 0.306799 2.05299
H 5.21814 0.164971 2.9769
H 4.00871 -0.025753 2.09939
O 14.6632 43.1722 7.55481
H 15.228 42.8114 8.26732
H 15.2415 43.6535 6.97146
O 5.91186 5.68168 5.45058
H 5.455 6.05069 6.18551
H 6.48891 4.98972 5.78462
O 43.0694 24.8485 33.6062
H 42.976 25.1308 32.6765
H 43.654 24.0893 33.5119
O 13.9779 0.455792 1.64682
H 13.6324 43.8571 2.1222
H 14.6189 0.000827156 1.13357
O 11.2904 5.31711 44.2348
H 10.8948 5.1198 43.3941
H 11.3406 6.26316 44.1583
O 15.9645 5.59015 5.3455
H 15.9129 6.41454 5.74491
H 15.0355 5.43505 5.12481
O 13.0978 4.64485 5.2547
H 12.2152 4.74194 5.70345
H 12.932 4.26179 4.34754
O 8.19165 1.97242 7.89893
H 7.53257 2.18048 8.59039
H 8.95939 1.65809 8.38644
O 8.00612 2.27885 2.64908
H 8.74581 2.62913 2.09911
H 7.26905 2.70011 2.18512
O 13.7136 41.3999 5.59924
H 14.0161 41.9642 6.3284
H 14.524 41.2312 5.14267
O 14.8059 2.93072 6.43666
H 13.9621 3.33453 6.08233
H 15.4421 3.57106 6.09446
O 8.31914 3.7482 5.68568
H 8.26447 3.016 6.26859
H 8.54339 3.39029 4.79831
O 13.1598 3.61181 2.73155
H 13.5417 2.75206 2.5463
H 12.29 3.62269 2.32621
O 10.6494 3.82761 1.32574
H 10.37 4.701 1.04684
H 11.0246 3.53627 0.48041
O 12.6125 42.7129 3.48495
H 11.6769 42.7706 3.62667
H 13.0151 42.224 4.30961
O 16.0091 0.594245 5.88597
H 16.8856 0.556034 5.48872
H 15.5425 1.44832 5.68749
O 13.3113 1.39122 9.07892
H 13.5156 0.564165 8.73259
H 13.6168 1.94172 8.3481
O 10.7489 4.89606 6.59117
H 10.4639 5.71744 6.99782
H 9.89118 4.51788 6.26731
O 10.0155 1.50127 9.63446
H 10.9193 1.41697 9.27909
H 10.0076 1.18236 10.5339
O 18.4116 1.05644 4.56767
H 18.7962 1.85507 4.93715
H 18.9659 0.885143 3.81038
O 17.3028 6.63649 44.0901
H 16.3976 6.64012 43.9391
H 17.4863 6.11821 44.903
O 23.6566 3.28521 3.04402
H 23.8862 4.27193 2.83358
H 23.5465 2.87439 2.19448
O 22.8704 2.47918 5.73023
H 23.1876 2.60715 4.78458
H 22.9658 1.53687 6.00929
O 20.9161 43.8812 9.29634
H 20.3229 43.1194 9.24725
H 21.5486 43.7131 8.57265
O 19.7303 3.29315 5.54285
H 19.5905 3.58122 6.45891
H 20.6499 3.04384 5.53934
O 19.2419 8.3746 42.8039
H 18.3901 8.47292 42.3695
H 19.0636 7.80943 43.5481
O 23.182 -0.115149 7.29509
H 24.0294 0.157408 7.63469
H 23.3443 43.257 6.73082
O 19.6626 4.1218 8.20102
H 19.6478 3.36457 8.88497
H 18.8958 4.61868 8.52408
O 18.3938 5.8456 3.77062
H 17.4932 5.74015 4.02854
H 18.8383 5.22994 4.35057
O 17.8812 5.19046 1.1392
H 18.238 5.27397 2.06402
H 18.3301 4.42591 0.868743
O 20.3532 10.9932 43.6597
H 21.2323 11.3327 43.4347
H 20.2274 10.0914 43.3865
O 26.5401 43.0688 5.8821
H 26.8154 43.446 5.00295
H 27.16 42.4191 6.16913
O 25.7386 0.0892086 8.15081
H 26.1444 1.0851 8.26549
H 26.1608 43.8461 7.38753
O 22.3535 4.16392 7.9194
H 21.4163 4.29595 8.15378
H 22.4195 3.60907 7.12071
O 19.273 2.02192 9.84487
H 19.5612 2.04882 10.7506
H 19.8216 1.34531 9.39819
O 28.0676 -0.179561 3.88839
H 28.0046 -0.394687 2.90727
H 28.1743 0.772324 3.96925
O 25.8336 9.26895 43.4106
H 25.9876 10.2087 43.4874
H 25.9239 9.05954 42.5288
O 26.9863 10.6068 40.7227
H 26.86 11.5438 40.6414
H 26.9909 10.3705 39.8128
O 28.8043 7.53482 6.44438
H 28.7707 7.28614 7.3571
H 29.1454 6.85841 5.82314
O 28.6668 2.85347 6.08163
H 29.308 2.24676 6.45854
H 27.9556 2.90243 6.79948
O 29.682 5.35928 4.80547
H 29.3532 4.62729 5.31953
H 29.753 4.88936 3.9431
O 25.7736 42.1256 0.350531
H 25.2468 41.7267 -0.436347
H 25.2192 41.7977 46.2429
O 30.6391 1.45288 7.71391
H 31.2643 2.10516 8.07968
H 31.1665 0.711671 7.44847
O 24.9585 4.82421 8.55338
H 24.0059 4.88505 8.58324
H 25.1525 5.65617 8.19479
O 24.4804 5.97936 2.72843
H 24.8073 6.48814 3.45137
H 24.7236 6.55125 2.01163
O 25.6699 8.28267 1.02204
H 25.6183 9.2532 1.15163
H 25.8165 8.14145 0.116198
O 27.6486 44.0096 0.998183
H 27.1238 43.2505 0.66255
H 28.4105 0.134162 0.413128
O 25.348 39.2771 44.8576
H 24.687 39.1751 44.1712
H 25.8725 38.4863 44.6578
O 33.5984 29.8627 29.0539
H 33.8315 28.9672 29.0215
H 32.6722 29.8302 29.1912
O 28.0819 10.1542 6.74316
H 28.4858 9.30201 6.61119
H 28.6842 10.7971 6.92334
O 26.8192 2.78753 8.4132
H 26.1536 3.48145 8.34965
H 27.428 2.99429 9.16847
    
    &END COORD
  &END SUBSYS
  &DFT
    BASIS_SET_FILE_NAME  BASIS_SET
    POTENTIAL_FILE_NAME  GTH_POTENTIALS
    &QS
      EPS_DEFAULT 1.0E-10
    &END QS
    &MGRID
      NGRIDS 4
      CUTOFF 135
      REL_CUTOFF 115
    &END MGRID
    &XC
      &XC_FUNCTIONAL PADE
      &END XC_FUNCTIONAL
    &END XC
    &SCF
      SCF_GUESS ATOMIC
      EPS_SCF 1.0E-7
      MAX_SCF 300
      &DIAGONALIZATION  ON
        ALGORITHM STANDARD
      &END DIAGONALIZATION
      &MIXING  T
        METHOD BROYDEN_MIXING
        ALPHA 0.4
        NBROYDEN 8
      &END MIXING
    &END SCF
  &END DFT
  &PRINT
    &FORCES ON
    &END FORCES
  &END PRINT
&END FORCE_EVAL
