&GLOBAL
  PROJECT H2O_bulk
  RUN_TYPE ENERGY_FORCE
  PRINT_LEVEL LOW
&END GLOBAL
&FORCE_EVAL
  METHOD Quickstep
  &SUBSYS
    &KIND H
      ELEMENT   H
      BASIS_SET DZVP-GTH-PBE
      POTENTIAL GTH-PBE-q1
    &END KIND
    &KIND O
      ELEMENT   O
      BASIS_SET DZVP-GTH-PBE
      POTENTIAL GTH-PBE-q6
    &END KIND
    &CELL
      A     46.937    0.000000000    0.000000000
      B     0.000000000    44.121    0.000000000
      C     0.000000000    0.000000000    45.182
    &END CELL
    &COORD

O 46.8645 0.553339 2.87852
H 46.0261 0.144856 2.73784
H 46.8031 1.43049 3.31162
O 4.61094 3.09996 44.2792
H 4.90447 3.42961 43.4095
H 3.74856 3.54039 44.2897
O 5.65585 2.37193 1.79508
H 5.29305 1.49164 1.93858
H 5.33967 2.60661 0.865408
O 4.00849 5.53051 3.12073
H 4.70692 5.52547 3.79178
H 4.16841 4.706 2.61612
O 46.4069 3.24161 3.49619
H 47.022 3.97995 3.73154
H 45.7004 3.60255 2.88451
O 4.21434 8.0845 1.54292
H 4.34392 7.23892 1.97178
H 5.05728 8.29759 1.08807
O 5.32209 4.46489 41.5186
H 5.67953 5.29462 41.2557
H 4.95276 4.06324 40.6662
O 1.13706 5.3413 3.9785
H 2.10778 5.44589 3.93316
H 1.08619 6.31463 3.87051
O 1.67628 9.16644 -0.0788504
H 2.46641 9.00564 0.470406
H 1.22426 8.38424 45.2515
O 7.20743 8.75516 0.754017
H 7.63657 8.71544 -0.0816791
H 7.77093 8.22155 1.33153
O 22.1952 28.3855 32.473
H 21.319 28.7449 32.5885
H 22.6655 29.1289 32.0904
O 2.21951 43.049 3.84151
H 2.05224 42.8416 4.78377
H 1.50237 43.6001 3.52185
O 4.59709 -0.248377 2.45952
H 5.30644 43.2219 2.65509
H 3.88672 43.6126 3.01215
O 15.4904 42.9746 7.71922
H 15.986 42.4667 8.34233
H 16.1453 43.6429 7.40821
O 5.70145 4.91757 5.15913
H 5.69648 5.43882 5.95198
H 6.6545 4.57819 5.08995
O 43.7054 22.8006 36.0192
H 44.387 23.4055 36.0044
H 44.0387 22.1706 35.3777
O 13.6482 1.11899 1.40976
H 13.1923 0.408324 1.91832
H 14.4937 0.671936 1.14544
O 11.3224 5.23058 43.9566
H 11.1519 5.94396 44.5514
H 11.091 5.48944 43.0704
O 15.7819 6.05594 5.3095
H 15.6003 6.97665 5.61276
H 14.9892 5.66275 4.96235
O 13.4545 4.49396 4.98612
H 12.5781 4.8914 5.14421
H 13.3582 3.99106 4.12841
O 8.18381 1.32652 7.3575
H 8.16787 0.378351 7.1586
H 8.92831 1.38155 8.00291
O 8.25246 2.65498 2.23149
H 8.82241 2.74003 1.4873
H 7.32307 2.64032 1.8783
O 13.5977 41.3634 5.67774
H 14.2924 41.612 6.28172
H 12.9387 41.084 6.29425
O 14.8363 3.26225 7.26103
H 14.174 3.56344 6.55135
H 15.2313 4.0651 7.59756
O 8.33072 3.57131 5.2674
H 8.36091 2.90257 5.96516
H 8.51964 2.97669 4.51354
O 12.5149 3.68344 2.28428
H 13.0682 3.02401 1.89219
H 11.6158 3.5248 2.01891
O 10.5551 2.66101 0.250479
H 10.8572 3.35198 -0.344654
H 10.8468 1.8264 -0.201796
O 12.9524 42.6528 3.00211
H 12.5716 41.8632 2.62159
H 13.1398 42.5005 3.95059
O 16.939 0.958411 6.48958
H 17.5723 0.95941 5.79455
H 16.5639 1.82323 6.52163
O 13.4448 0.903477 8.58724
H 13.9959 0.280343 8.14997
H 13.9394 1.70338 8.52299
O 10.8225 5.37529 5.29868
H 10.4906 5.8901 6.03915
H 10.1153 4.76229 5.07152
O 10.4486 0.596231 9.24559
H 11.381 0.36214 8.93801
H 10.514 1.41567 9.74357
O 19.0195 1.31715 4.45803
H 19.2564 2.21189 4.69905
H 19.8278 0.859751 4.43622
O 16.7343 7.19417 44.5886
H 15.9163 7.21288 45.1446
H 17.2041 6.34862 44.7709
O 24.2502 4.04853 3.89698
H 24.1476 4.95638 3.60225
H 24.9978 3.75062 3.37027
O 22.4446 2.64666 5.35475
H 23.2255 2.98773 4.82403
H 22.6849 1.80111 5.84449
O 21.6284 44.1137 10.064
H 21.3214 43.2557 10.3346
H 22.0796 43.9086 9.26182
O 19.8012 3.96918 5.18746
H 19.5661 3.91867 6.11179
H 20.7978 3.91883 5.12776
O 18.5882 9.01053 43.46
H 18.9819 8.18585 43.7384
H 17.7038 8.7951 43.7678
O 22.9237 43.8057 7.51748
H 23.8382 -0.10834 7.83962
H 22.9514 42.9366 7.11493
O 19.5622 3.64211 7.85337
H 19.3411 2.82132 8.34924
H 19.3105 4.27344 8.52294
O 17.8917 5.19632 3.2366
H 17.1896 5.55146 3.77486
H 18.547 4.89573 3.91593
O 18.2959 5.22735 0.605607
H 18.1157 5.05675 1.55239
H 19.121 4.77627 0.475268
O 19.992 11.3992 44.583
H 19.701 10.7453 43.9227
H 20.6628 12.0293 44.2906
O 27.2757 42.8304 6.74461
H 27.4469 42.9655 5.77322
H 27.9856 42.3312 7.09711
O 25.5546 0.0943852 8.29107
H 25.9 1.00586 8.14939
H 26.2562 43.7039 7.82559
O 22.8412 4.33494 7.92216
H 22.0484 4.80401 8.04054
H 22.652 3.82556 7.11632
O 19.4082 1.61527 9.46342
H 18.6477 0.975671 9.31005
H 20.1971 1.11689 9.55315
O 27.9759 43.9661 4.17323
H 27.8284 44.0461 3.20672
H 28.6842 0.409279 4.31498
O 25.2591 9.15525 43.3813
H 24.5706 8.74465 42.769
H 25.4934 9.85954 42.8239
O 26.354 10.5309 41.0583
H 27.2567 10.3931 40.7647
H 26.1761 11.483 40.9429
O 28.574 7.25507 6.43119
H 28.158 6.7173 7.07367
H 29.0572 6.65645 5.81197
O 29.3743 2.36719 5.73969
H 30.1573 2.10064 6.28177
H 28.7016 2.32854 6.39553
O 30.0003 5.26496 5.0458
H 29.6913 4.40133 5.21274
H 30.0536 5.25108 4.06038
O 25.0839 42.0908 0.691205
H 25.2421 41.4148 45.1411
H 24.1766 42.4797 0.450335
O 30.6558 1.60168 8.08283
H 31.0209 2.32816 8.59001
H 31.3276 0.940561 8.18772
O 25.1438 5.36612 8.94023
H 24.3398 5.13547 8.52889
H 25.3333 6.31102 8.82641
O 23.9837 6.48111 2.56048
H 23.6724 7.06214 3.21996
H 24.6826 6.98923 2.14433
O 25.836 7.72599 0.571809
H 26.28 6.96938 0.225652
H 25.5193 8.23683 -0.174819
O 26.9644 44.2235 1.00816
H 26.4045 43.4274 1.0099
H 26.426 44.8829 0.728852
O 25.143 39.1839 44.3536
H 24.2363 39.0057 44.4581
H 25.3247 38.8532 43.4456
O 32.8164 28.7994 30.5079
H 32.5692 28.1524 31.2353
H 31.9665 29.3029 30.4638
O 28.0143 9.92207 5.66607
H 28.2306 8.98308 5.71478
H 28.5182 10.2888 5.00092
O 26.7317 3.04673 8.27425
H 26.1775 3.79669 8.12485
H 27.0117 3.22675 9.13522
    
    &END COORD
  &END SUBSYS
  &DFT
    BASIS_SET_FILE_NAME  BASIS_SET
    POTENTIAL_FILE_NAME  GTH_POTENTIALS
    &QS
      EPS_DEFAULT 1.0E-10
    &END QS
    &MGRID
      NGRIDS 4
      CUTOFF 135
      REL_CUTOFF 115
    &END MGRID
    &XC
      &XC_FUNCTIONAL PADE
      &END XC_FUNCTIONAL
    &END XC
    &SCF
      SCF_GUESS ATOMIC
      EPS_SCF 1.0E-7
      MAX_SCF 300
      &DIAGONALIZATION  ON
        ALGORITHM STANDARD
      &END DIAGONALIZATION
      &MIXING  T
        METHOD BROYDEN_MIXING
        ALPHA 0.4
        NBROYDEN 8
      &END MIXING
    &END SCF
  &END DFT
  &PRINT
    &FORCES ON
    &END FORCES
  &END PRINT
&END FORCE_EVAL
