&GLOBAL
  PROJECT H2O_bulk
  RUN_TYPE ENERGY_FORCE
  PRINT_LEVEL LOW
&END GLOBAL
&FORCE_EVAL
  METHOD Quickstep
  &SUBSYS
    &KIND H
      ELEMENT   H
      BASIS_SET DZVP-GTH-PBE
      POTENTIAL GTH-PBE-q1
    &END KIND
    &KIND O
      ELEMENT   O
      BASIS_SET DZVP-GTH-PBE
      POTENTIAL GTH-PBE-q6
    &END KIND
    &CELL
      A     46.937    0.000000000    0.000000000
      B     0.000000000    44.121    0.000000000
      C     0.000000000    0.000000000    45.182
    &END CELL
    &COORD

O 46.8092 0.452483 2.93018
H 46.1673 0.369221 2.12595
H 46.6905 1.42 3.09864
O 4.92781 3.37597 44.1259
H 5.47069 3.71095 43.4192
H 4.2049 2.92541 43.7217
O 5.42414 2.77653 1.6693
H 5.0895 1.84957 1.86787
H 5.32373 2.97694 0.71139
O 3.70948 5.02304 2.99009
H 4.22356 4.99387 3.77248
H 3.91187 4.16325 2.61901
O 45.8071 3.0244 2.67704
H 46.5956 3.56804 2.96539
H 45.0453 3.35642 3.16758
O 3.76224 8.3554 2.06212
H 4.12673 7.5441 2.37549
H 4.59098 8.83858 1.88495
O 5.26473 4.02961 41.4797
H 5.33126 4.80099 40.9258
H 5.83022 3.41046 40.9839
O 0.808737 4.57285 3.93122
H 1.73746 4.7676 3.6388
H 0.646875 5.04646 4.79059
O 1.80916 9.01088 0.24274
H 2.60669 8.65168 0.711909
H 1.4553 8.37384 44.8618
O 6.73392 8.3958 1.88382
H 7.40017 8.53458 1.17207
H 7.06764 8.89338 2.65406
O 23.6452 27.1665 33.2179
H 23.7201 28.1337 33.2638
H 24.3186 26.9423 32.5908
O 2.35325 43.2023 3.02303
H 2.23424 42.597 3.77715
H 1.62176 43.8044 2.99373
O 4.8158 0.0577424 2.2476
H 5.57316 43.5869 2.18698
H 4.15535 43.8143 2.79701
O 14.9042 43.279 7.53167
H 15.3928 42.7721 8.18911
H 15.52 43.8527 7.07884
O 5.91495 5.38894 5.30238
H 6.23296 6.10885 5.81178
H 6.7269 4.88344 5.14192
O 43.3216 24.2982 34.2574
H 42.4102 24.1897 34.0879
H 43.6018 23.476 34.144
O 13.9033 0.767892 1.56389
H 13.4642 0.131408 2.19467
H 14.7512 0.440956 1.23677
O 11.3029 5.3478 44.131
H 12.0137 5.14309 43.5453
H 11.2708 6.28931 44.2756
O 15.9152 5.61106 5.2399
H 15.8841 6.33988 5.86266
H 14.9742 5.48437 4.91259
O 13.2283 4.68794 5.10248
H 12.435 4.94747 5.57255
H 12.9639 4.27498 4.24742
O 7.96614 1.87244 7.48078
H 7.11421 1.88747 7.95372
H 8.64793 1.83003 8.16122
O 8.21295 2.2602 2.60682
H 9.02192 2.71929 2.25699
H 7.36094 2.56932 2.2825
O 13.7064 41.3115 5.65615
H 14.0506 41.8327 6.4257
H 14.1671 40.484 5.6665
O 14.8172 2.9568 6.60063
H 14.2544 3.39841 5.90176
H 15.37 3.67097 6.91509
O 8.24977 3.66277 5.47676
H 8.09083 3.13835 6.31567
H 8.35125 3.07498 4.73305
O 13.1952 3.51267 2.63052
H 13.5392 2.64321 2.27115
H 12.4147 3.60733 2.10368
O 10.5334 3.44939 1.02489
H 10.5429 4.38291 0.83562
H 10.5814 2.95185 0.198103
O 12.6735 42.8364 3.36331
H 11.8752 42.3284 3.36803
H 13.1601 42.338 4.01477
O 16.3966 0.701967 6.00836
H 17.2825 0.79309 5.69584
H 15.9831 1.569 5.95365
O 13.3577 1.17649 9.06575
H 13.7362 0.490921 8.50431
H 13.524 2.00833 8.58081
O 10.5855 5.07299 6.46381
H 10.2858 5.95894 6.65196
H 9.85712 4.5781 6.08139
O 10.3085 1.28927 9.77968
H 11.3108 1.34769 9.69617
H 10.2644 0.388666 10.1192
O 18.6792 1.10249 4.55157
H 19.108 1.97674 4.7059
H 18.2807 1.14216 3.68468
O 17.0823 6.92009 44.2883
H 16.8002 6.25748 43.6941
H 17.4723 6.36574 44.9952
O 23.7653 3.44029 3.23159
H 24.0432 4.30413 3.0306
H 23.76 2.91823 2.45666
O 22.5836 2.46727 5.66075
H 23.1304 2.69496 4.91475
H 22.7131 1.57023 5.83125
O 21.0604 43.8517 9.48162
H 21.6511 43.4291 10.1164
H 21.5962 43.9349 8.66845
O 19.9516 3.61153 5.12455
H 19.7074 3.80019 6.03657
H 20.8497 3.25145 5.19152
O 19.0669 8.49222 43.1214
H 18.6834 8.59764 42.2476
H 18.3524 8.03055 43.5646
O 23.1928 43.8206 7.4303
H 24.1116 -0.159527 7.73848
H 23.2705 43.1166 6.80349
O 19.5156 4.09364 8.14894
H 19.5416 3.29067 8.67182
H 18.9149 4.69872 8.62049
O 18.2781 5.63939 3.61798
H 17.4827 5.64109 4.16586
H 18.9292 5.0939 4.05951
O 18.0659 5.15411 1.02634
H 18.092 5.29209 1.98975
H 18.6707 4.49344 0.799772
O 20.2722 11.0952 43.8554
H 20.5674 10.3068 44.3189
H 19.5815 10.6256 43.4198
O 26.8644 42.9913 6.20918
H 27.0128 43.3662 5.32896
H 26.824 42.0671 6.04007
O 25.5911 0.238214 8.50159
H 25.8243 1.11568 8.41223
H 26.159 43.8279 7.89232
O 22.5771 4.18796 8.01644
H 21.6387 4.13463 8.16771
H 22.7008 3.52821 7.31069
O 19.2757 1.84277 9.78008
H 19.2134 2.06365 10.7317
H 19.9656 1.1671 9.76416
O 27.9679 43.8324 3.60107
H 27.8921 43.9137 2.66149
H 28.5825 0.361081 3.87815
O 25.6422 9.26988 43.3393
H 25.2013 10.107 42.9991
H 26.2581 9.13596 42.6474
O 26.7755 10.7116 40.7094
H 27.7592 10.8772 40.8669
H 26.7454 10.3021 39.8097
O 28.6565 7.34342 6.42336
H 29.2899 6.92438 7.00409
H 28.6702 6.63244 5.70992
O 28.8655 2.7612 5.88921
H 29.4712 2.23754 6.34951
H 28.1516 2.93709 6.56215
O 29.8268 5.44534 4.86345
H 29.5586 4.5602 5.01898
H 30.068 5.57343 3.90245
O 25.5705 42.0945 0.49461
H 25.8482 41.7172 44.8386
H 25.705 41.4072 1.06038
O 30.6398 1.47329 7.8915
H 31.0562 1.76025 8.72662
H 31.1167 0.674079 7.71871
O 25.0011 4.94304 8.61879
H 23.9977 4.82633 8.60612
H 25.2106 5.83397 8.43219
O 24.3886 6.21055 2.79843
H 23.7416 6.85315 3.03393
H 25.0331 6.70075 2.27595
O 25.7565 8.07476 0.91598
H 25.7028 8.97253 1.36375
H 25.837 8.29568 -0.0402716
O 27.4242 44.1144 0.967766
H 26.7606 43.4265 0.883276
H 28.2001 43.6794 0.611364
O 25.2916 39.3915 44.7133
H 24.5908 38.9441 44.2492
H 25.828 38.6426 45.101
O 33.2822 29.5648 29.4983
H 33.9131 29.5735 28.827
H 33.5162 28.7663 29.8926
O 28.0779 10.107 6.41853
H 28.2897 9.1559 6.54339
H 28.902 10.4763 6.58715
O 26.5784 2.84526 8.31907
H 25.8886 3.58993 8.39328
H 27.0601 3.01457 9.12023
    
    &END COORD
  &END SUBSYS
  &DFT
    BASIS_SET_FILE_NAME  BASIS_SET
    POTENTIAL_FILE_NAME  GTH_POTENTIALS
    &QS
      EPS_DEFAULT 1.0E-10
    &END QS
    &MGRID
      NGRIDS 4
      CUTOFF 135
      REL_CUTOFF 115
    &END MGRID
    &XC
      &XC_FUNCTIONAL PADE
      &END XC_FUNCTIONAL
    &END XC
    &SCF
      SCF_GUESS ATOMIC
      EPS_SCF 1.0E-7
      MAX_SCF 300
      &DIAGONALIZATION  ON
        ALGORITHM STANDARD
      &END DIAGONALIZATION
      &MIXING  T
        METHOD BROYDEN_MIXING
        ALPHA 0.4
        NBROYDEN 8
      &END MIXING
    &END SCF
  &END DFT
  &PRINT
    &FORCES ON
    &END FORCES
  &END PRINT
&END FORCE_EVAL
