&GLOBAL
  PROJECT H2O_bulk
  RUN_TYPE ENERGY_FORCE
  PRINT_LEVEL LOW
&END GLOBAL
&FORCE_EVAL
  METHOD Quickstep
  &SUBSYS
    &KIND H
      ELEMENT   H
      BASIS_SET DZVP-GTH-PBE
      POTENTIAL GTH-PBE-q1
    &END KIND
    &KIND O
      ELEMENT   O
      BASIS_SET DZVP-GTH-PBE
      POTENTIAL GTH-PBE-q6
    &END KIND
    &CELL
      A     46.937    0.000000000    0.000000000
      B     0.000000000    44.121    0.000000000
      C     0.000000000    0.000000000    45.182
    &END CELL
    &COORD

O 1.38268 43.5861 0.755507
H 0.543835 43.3606 0.464846
H 1.16328 44.1057 1.60352
O 4.86819 4.69047 0.104593
H 5.25659 5.10896 44.5509
H 5.02824 3.75009 -0.0243932
O 5.81191 5.64516 3.02922
H 6.63218 5.18176 2.96304
H 5.50129 5.58962 2.18295
O 3.96487 4.55179 4.82811
H 4.30918 4.34614 5.7099
H 4.70431 4.83066 4.33297
O 0.675058 1.07316 2.97812
H 1.4548 1.41484 3.40451
H 0.190751 1.85136 2.84323
O 1.78914 7.17351 5.48076
H 2.4288 6.47609 5.33109
H 0.918369 6.80739 5.37873
O 5.06724 1.72698 0.1633
H 4.17157 1.59731 45.0398
H 5.58263 1.46233 44.6338
O 3.40354 1.95945 3.9906
H 3.70897 2.86443 4.03014
H 3.62943 1.80965 4.95212
O 1.2648 10.0139 5.7313
H 1.65046 9.09227 5.73395
H 2.054 10.5698 5.83008
O 45.7389 6.1179 5.34837
H 45.1849 5.88035 6.09033
H 45.1459 6.69233 4.88407
O 41.6279 12.5661 41.8416
H 42.4852 12.4197 41.5113
H 41.1884 11.7173 41.6534
O 2.59682 1.27756 44.0708
H 1.95308 1.77692 43.58
H 2.0836 0.804275 44.7408
O 5.97369 0.331676 2.68107
H 5.65169 0.938493 2.07791
H 5.29957 0.394777 3.32187
O 12.7297 43.2144 12.1955
H 12.0153 43.2121 11.5891
H 12.2652 43.3811 13.0126
O 5.20444 3.62854 7.44439
H 6.10066 3.82724 7.2787
H 5.20805 3.51391 8.37559
O 44.2593 39.7948 15.3778
H 45.1995 39.6224 15.1736
H 44.1276 39.2168 16.1674
O 8.42652 1.40304 3.6382
H 7.56792 1.14049 3.25266
H 9.12714 0.763035 3.47286
O 11.6009 6.22906 44.2572
H 12.5222 6.30815 43.992
H 11.2195 7.07089 44.0157
O 14.4833 8.43516 6.04913
H 14.498 9.26478 6.51093
H 13.6322 8.10993 6.28382
O 11.7073 8.06315 6.46501
H 11.0358 7.55596 6.97369
H 11.3917 7.99229 5.60792
O 9.63244 1.98702 6.70179
H 9.44157 1.72682 5.80981
H 9.25963 1.28826 7.27822
O 8.80396 6.42875 4.56793
H 8.82468 5.91601 3.77476
H 8.19378 7.14532 4.45782
O 12.7984 43.3243 3.51869
H 13.5115 42.9602 2.9976
H 13.2217 43.8577 4.23586
O 12.4304 1.53176 7.73284
H 11.6144 1.91153 7.30373
H 12.8634 2.33735 8.06922
O 8.19093 4.50745 6.68876
H 8.74827 3.67727 6.68503
H 8.36782 4.90512 5.80131
O 8.44271 4.08943 2.70671
H 8.41456 3.20112 2.99048
H 8.89652 3.99041 1.83859
O 10.4343 4.60278 0.762403
H 10.5431 4.24329 -0.124811
H 10.7659 5.52433 0.68454
O 10.2332 43.7619 2.57901
H 10.0349 42.8476 2.52767
H 11.161 43.8582 2.82066
O 14.1085 0.280998 5.75467
H 14.8857 0.789756 5.76854
H 13.5858 0.715212 6.47432
O 11.4929 42.4634 8.90618
H 11.8884 41.6036 9.04673
H 12.2187 43.0701 8.80293
O 9.35623 6.77028 7.69318
H 9.57886 6.75317 8.61105
H 8.95972 5.88832 7.45214
O 8.64918 43.5003 7.94143
H 9.40302 43.0917 8.31444
H 7.95745 43.259 8.57214
O 16.6377 1.84739 6.17848
H 16.83 2.77846 6.03822
H 17.4608 1.40465 5.91117
O 19.8627 3.52319 0.595336
H 20.6777 3.80007 1.01216
H 19.1798 3.90499 1.14337
O 22.2234 4.43601 2.30205
H 23.1313 4.15003 2.53144
H 22.1551 5.34455 2.08135
O 21.056 4.1082 4.9041
H 21.2884 4.35513 4.03584
H 21.1493 3.14397 4.90122
O 19.2644 0.543016 5.44436
H 20.1682 0.672995 5.10417
H 19.084 43.7333 5.23461
O 18.1892 4.45189 5.89838
H 18.7214 4.35176 6.68409
H 18.9423 4.55288 5.31582
O 19.8391 2.75527 43.1342
H 18.9867 3.00343 42.8185
H 19.8099 3.06421 44.0763
O 22.1091 1.30142 4.80158
H 22.5983 1.11764 5.59163
H 22.6989 1.10643 4.03591
O 20.1663 4.26472 7.89317
H 20.4553 3.29459 8.05669
H 19.8193 4.55847 8.73136
O 16.8966 6.77812 4.51427
H 16.1386 7.22364 4.89476
H 17.2082 6.10944 5.24496
O 17.3208 4.57929 2.28702
H 16.5596 4.04028 2.49343
H 17.1547 5.32964 2.85363
O 21.265 0.899068 41.6187
H 20.7152 1.3036 42.2608
H 21.6451 0.212256 42.1448
O 24.1398 0.494844 3.04853
H 25.0447 0.771985 3.0259
H 24.1827 -0.345681 2.59938
O 23.2925 0.639314 7.73257
H 24.0506 1.3467 7.89688
H 23.7109 43.9535 8.19757
O 22.5311 5.46664 6.92266
H 21.7093 5.21703 7.43131
H 22.2365 5.22837 6.04426
O 20.6407 1.63876 8.22821
H 21.5466 1.33572 8.07113
H 20.1165 1.05389 7.77267
O 26.8845 1.44974 3.11975
H 27.6379 0.940731 2.66897
H 27.3182 1.58289 3.94166
O 29.2334 7.13733 44.7115
H 29.064 7.97813 44.1477
H 30.0129 6.78237 44.3768
O 30.3119 8.3216 2.18531
H 30.0664 7.92416 1.38226
H 29.8613 7.83215 2.83608
O 29.3029 8.07243 7.91696
H 29.1086 8.92962 7.57557
H 28.8269 7.47438 7.3224
O 27.8042 2.5271 6.28308
H 28.5735 2.17218 6.74827
H 27.0484 2.17485 6.79982
O 27.5293 5.13021 5.82077
H 27.7149 4.22531 5.86901
H 27.3696 5.27121 4.89974
O 30.3802 41.6447 0.332247
H 30.765 41.7728 44.6838
H 30.8294 40.895 0.787338
O 30.3705 1.32792 7.67641
H 31.065 1.96514 7.72009
H 30.8378 0.478435 7.71575
O 25.0184 5.2253 7.80736
H 24.1422 5.30947 7.47697
H 25.716 5.41602 7.15708
O 25.0778 4.3771 2.6643
H 25.5702 3.54547 2.65138
H 25.4518 4.83378 1.98295
O 26.4411 5.58488 0.125542
H 26.416 5.32635 44.3874
H 27.3402 5.91711 0.244282
O 28.9311 -0.0579462 1.52876
H 29.017 43.1194 1.39407
H 29.5836 44.4933 1.00947
O 32.2826 40.8715 43.084
H 31.9101 40.5241 42.2735
H 33.1854 40.6448 43.0175
O 33.444 39.7834 15.0546
H 33.4439 40.7037 15.1162
H 34.3499 39.6074 14.9887
O 32.0443 7.21667 9.52395
H 31.3057 7.1832 8.92829
H 31.7387 7.84254 10.2253
O 25.3964 2.52906 8.22666
H 25.1439 3.49431 7.95211
H 25.7612 2.54063 9.14899
    
    &END COORD
  &END SUBSYS
  &DFT
    BASIS_SET_FILE_NAME  BASIS_SET
    POTENTIAL_FILE_NAME  GTH_POTENTIALS
    &QS
      EPS_DEFAULT 1.0E-10
    &END QS
    &MGRID
      NGRIDS 4
      CUTOFF 135
      REL_CUTOFF 115
    &END MGRID
    &XC
      &XC_FUNCTIONAL PADE
      &END XC_FUNCTIONAL
    &END XC
    &SCF
      SCF_GUESS ATOMIC
      EPS_SCF 1.0E-7
      MAX_SCF 300
      &DIAGONALIZATION  ON
        ALGORITHM STANDARD
      &END DIAGONALIZATION
      &MIXING  T
        METHOD BROYDEN_MIXING
        ALPHA 0.4
        NBROYDEN 8
      &END MIXING
    &END SCF
  &END DFT
  &PRINT
    &FORCES ON
    &END FORCES
  &END PRINT
&END FORCE_EVAL
