&GLOBAL
  PROJECT H2O_bulk
  RUN_TYPE ENERGY_FORCE
  PRINT_LEVEL LOW
&END GLOBAL
&FORCE_EVAL
  METHOD Quickstep
  &SUBSYS
    &KIND H
      ELEMENT   H
      BASIS_SET DZVP-GTH-PBE
      POTENTIAL GTH-PBE-q1
    &END KIND
    &KIND O
      ELEMENT   O
      BASIS_SET DZVP-GTH-PBE
      POTENTIAL GTH-PBE-q6
    &END KIND
    &CELL
      A     46.937    0.000000000    0.000000000
      B     0.000000000    44.121    0.000000000
      C     0.000000000    0.000000000    45.182
    &END CELL
    &COORD

O 0.346857 0.383588 1.65034
H 46.3568 0.301626 2.0279
H 0.910091 0.1812 2.40196
O 6.39479 3.89724 45.1232
H 6.07063 4.46657 44.4091
H 5.85815 3.08866 -0.0814406
O 6.34195 5.05154 3.25396
H 7.25246 4.83109 3.16074
H 5.89646 4.6357 2.4663
O 4.77503 4.91879 5.29178
H 5.34205 5.16365 6.02549
H 5.41383 5.0633 4.50261
O 2.33088 43.6794 3.92697
H 2.66344 0.280489 4.39579
H 2.11388 43.0621 4.58185
O 1.28451 6.14591 6.62838
H 2.2124 5.98419 6.42429
H 0.78494 5.97195 5.8267
O 4.74565 1.44039 0.267723
H 3.8191 1.29985 45.136
H 5.11846 0.619341 45.2081
O 4.25041 2.33352 4.83601
H 4.42774 3.32664 5.04729
H 4.40743 1.89383 5.72407
O 0.447883 8.49066 8.05912
H 0.715509 7.66888 7.68419
H 0.5635 8.29273 8.98511
O 0.221242 5.49761 3.83752
H 46.3826 5.81234 3.38716
H 0.489774 4.78246 3.25508
O 45.5637 9.28022 43.6419
H 44.7162 9.34277 44.0899
H 45.9656 10.1044 43.8657
O 2.12203 0.510671 44.3865
H 1.6495 0.78262 43.5942
H 1.42886 0.481949 45.0262
O 6.09576 1.43091 3.04007
H 5.62173 1.38401 2.14904
H 5.51937 1.83647 3.7015
O 9.14918 43.0093 12.1956
H 8.47327 42.9038 12.854
H 9.84901 42.4211 12.4835
O 6.39584 5.82966 7.53023
H 7.31605 5.49955 7.78187
H 6.1328 6.41849 8.24247
O 46.2477 42.6621 11.7574
H 46.3166 43.0986 10.8285
H 46.5375 43.3615 12.3137
O 8.86082 1.65672 3.15078
H 7.90563 1.5259 3.08638
H 9.37507 1.24803 2.47228
O 12.9867 5.45566 44.7557
H 13.249 5.49084 43.8665
H 13.6504 5.97167 -0.0208882
O 14.4391 7.05577 4.66289
H 13.997 7.68893 4.09975
H 13.8989 7.08228 5.47852
O 12.3014 7.33622 6.33107
H 12.0121 7.5739 7.20218
H 11.6406 6.59803 6.10783
O 9.98743 1.28274 6.08813
H 9.4931 1.36209 5.23464
H 9.41262 0.963535 6.79007
O 10.0765 5.22293 5.7078
H 10.0846 4.57343 4.96238
H 9.21061 5.57349 5.44875
O 13.1282 0.145706 0.913974
H 13.5959 0.800051 0.40286
H 13.451 0.288667 1.77948
O 12.7223 0.475281 6.13484
H 11.7887 0.567513 5.98737
H 12.952 1.34648 6.45597
O 9.21003 4.83711 8.23402
H 9.04554 4.00906 8.69494
H 9.65775 4.56124 7.43921
O 9.09966 4.36903 3.15007
H 9.10301 3.36442 3.07438
H 9.48737 4.61494 2.33029
O 10.3493 5.46835 0.900124
H 9.77463 5.63487 0.172859
H 11.2182 5.27854 0.50979
O 10.2971 0.369752 0.900092
H 10.0623 43.5772 0.752027
H 11.2949 0.370185 0.95932
O 14.1267 0.867215 3.36202
H 15.0293 1.01687 3.62412
H 13.7112 0.621744 4.17409
O 12.0461 43.6095 8.77194
H 12.7321 43.1329 9.245
H 12.4165 43.7327 7.88223
O 10.8087 7.12531 8.72014
H 10.1968 7.81712 8.97559
H 10.2767 6.28308 8.783
O 8.82651 0.350569 8.9869
H 9.69285 44.0867 9.17823
H 8.23571 44.0266 9.59124
O 16.7418 1.46448 3.89065
H 17.0711 2.20589 3.38799
H 17.3372 1.43277 4.65371
O 19.8914 4.05239 0.625042
H 20.6169 4.27742 1.23281
H 19.1388 4.64612 0.907324
O 22.1669 4.96212 2.70158
H 23.0899 4.75885 2.72878
H 22.1884 5.90542 2.61474
O 21.337 4.28743 5.34648
H 21.5966 4.43698 4.46548
H 21.3121 3.2879 5.46082
O 18.6887 0.916788 6.00627
H 19.5539 1.14071 5.56711
H 18.5872 -0.0370085 6.04328
O 18.6663 5.0667 5.84724
H 18.4885 4.78541 6.75614
H 19.6098 4.84861 5.5597
O 20.3379 1.60688 44.1586
H 20.3708 2.40717 43.6847
H 20.0235 1.97545 44.9572
O 21.2907 1.56466 5.36278
H 21.6915 1.32038 6.18001
H 21.8947 1.35392 4.66676
O 18.3309 4.38521 8.50302
H 18.733 3.55189 8.66754
H 17.4308 4.41462 8.84009
O 16.9253 6.04842 3.93591
H 16.0641 6.30583 4.33555
H 17.5284 5.77984 4.5703
O 18.0132 6.04955 1.19451
H 18.1244 6.96996 0.939697
H 17.6754 6.07375 2.14402
O 20.0018 43.0915 42.918
H 20.0779 43.9842 43.2931
H 19.5043 43.2981 42.1143
O 22.9715 0.573913 3.55265
H 23.8351 0.864505 3.37463
H 22.5935 0.499581 2.68071
O 22.2549 0.893366 8.43132
H 23.2096 1.32026 8.47062
H 22.281 -0.038201 8.80099
O 22.4072 5.82147 7.6429
H 21.6541 6.02843 8.21615
H 22.0419 5.36873 6.84122
O 19.4676 2.01193 8.76487
H 20.3868 1.80231 8.81117
H 19.1724 1.58288 7.94248
O 25.4613 1.54556 3.08486
H 26.1534 1.22317 2.49137
H 26.0009 1.4548 3.93472
O 29.3436 5.53464 44.8003
H 29.5543 6.06293 44.0968
H 29.689 4.66584 44.4957
O 30.1054 6.891 2.2919
H 29.8624 6.32809 1.5684
H 29.2445 7.16857 2.64449
O 29.9927 6.14188 6.86541
H 30.1423 6.42478 5.9678
H 29.0277 6.2427 6.95489
O 26.5241 1.15836 5.64773
H 27.4434 1.32169 5.87608
H 26.0816 1.28316 6.43208
O 26.506 6.2642 6.24734
H 25.7904 5.96691 5.62333
H 26.557 7.14424 6.00607
O 29.5004 43.7201 45.1322
H 30.1047 43.0467 0.237046
H 29.6787 43.8871 44.2082
O 29.4028 1.54945 6.33785
H 30.0363 2.28423 6.24639
H 29.9809 0.81003 6.22017
O 24.6837 4.65007 8.84347
H 23.8662 4.98291 8.49639
H 25.33 5.20699 8.4201
O 25.0747 4.58399 2.78672
H 25.317 3.67346 2.8508
H 25.5101 5.01509 1.99295
O 26.3259 6.15459 0.585903
H 26.0827 7.01024 0.23107
H 27.0278 5.83248 -0.0175009
O 27.5231 0.790416 1.23738
H 27.0145 0.346129 0.53247
H 28.3934 0.439666 1.16078
O 32.5084 42.2821 0.544655
H 32.8502 41.9553 1.32242
H 32.8376 41.6417 45.0619
O 31.8408 42.3995 11.5372
H 30.9214 42.1459 11.4706
H 31.8034 43.3354 11.4929
O 31.369 6.59384 9.5632
H 31.2006 6.3578 8.68132
H 30.6674 7.24119 9.77333
O 24.8621 1.80527 8.25679
H 24.8959 2.86162 8.35575
H 25.2783 1.46256 9.09973
    
    &END COORD
  &END SUBSYS
  &DFT
    BASIS_SET_FILE_NAME  BASIS_SET
    POTENTIAL_FILE_NAME  GTH_POTENTIALS
    &QS
      EPS_DEFAULT 1.0E-10
    &END QS
    &MGRID
      NGRIDS 4
      CUTOFF 135
      REL_CUTOFF 115
    &END MGRID
    &XC
      &XC_FUNCTIONAL PADE
      &END XC_FUNCTIONAL
    &END XC
    &SCF
      SCF_GUESS ATOMIC
      EPS_SCF 1.0E-7
      MAX_SCF 300
      &DIAGONALIZATION  ON
        ALGORITHM STANDARD
      &END DIAGONALIZATION
      &MIXING  T
        METHOD BROYDEN_MIXING
        ALPHA 0.4
        NBROYDEN 8
      &END MIXING
    &END SCF
  &END DFT
  &PRINT
    &FORCES ON
    &END FORCES
  &END PRINT
&END FORCE_EVAL
