&GLOBAL
  PROJECT H2O_bulk
  RUN_TYPE ENERGY_FORCE
  PRINT_LEVEL LOW
&END GLOBAL
&FORCE_EVAL
  METHOD Quickstep
  &SUBSYS
    &KIND H
      ELEMENT   H
      BASIS_SET DZVP-GTH-PBE
      POTENTIAL GTH-PBE-q1
    &END KIND
    &KIND O
      ELEMENT   O
      BASIS_SET DZVP-GTH-PBE
      POTENTIAL GTH-PBE-q6
    &END KIND
    &CELL
      A     46.937    0.000000000    0.000000000
      B     0.000000000    44.121    0.000000000
      C     0.000000000    0.000000000    45.182
    &END CELL
    &COORD

O 1.09482 44.0758 0.354422
H 0.43579 43.2897 0.27077
H 0.807095 0.387427 1.2196
O 4.50064 5.31584 0.575577
H 4.54271 6.14607 45.2521
H 4.92214 4.68156 0.0114647
O 5.47975 4.77967 2.92392
H 5.7425 3.88773 2.88494
H 5.40334 5.04732 2.02903
O 2.80648 4.92764 4.50948
H 3.41191 4.823 5.38222
H 3.58603 4.89463 3.87766
O 0.0213393 1.30722 2.58063
H 0.506384 1.50562 3.36537
H 46.3095 2.06572 2.60591
O 1.03153 7.47251 4.26919
H 1.45296 6.60179 4.3317
H 0.262481 7.3703 4.82748
O 5.50583 2.62704 44.9663
H 4.86849 1.86838 44.7503
H 6.24593 2.55787 44.4235
O 1.69932 2.34166 4.72717
H 1.93883 3.31777 4.57721
H 2.37569 1.87266 5.14061
O 3.04098 9.53256 4.11637
H 2.34498 8.89431 4.09294
H 2.64662 10.38 4.12684
O 46.0431 6.42533 6.15578
H 46.3146 5.64394 6.62091
H 45.2331 6.65118 6.58628
O 38.9461 14.6461 40.5529
H 38.5218 15.4693 40.4787
H 39.8294 14.8327 40.1424
O 3.93966 0.373288 44.4635
H 4.06962 -0.461605 44.0371
H 3.00981 0.25558 44.7785
O 6.48875 1.77738 2.35215
H 6.34241 1.97921 1.43469
H 5.8715 1.08492 2.63382
O 14.2151 42.7244 10.6383
H 13.4716 42.5202 11.2266
H 14.9272 42.8026 11.2745
O 4.80714 3.76122 6.46452
H 5.73322 3.98697 6.43945
H 4.70131 3.03848 7.07915
O 43.0137 37.714 17.9604
H 42.378 37.2904 18.4194
H 42.5346 37.954 17.1896
O 9.07984 1.49758 3.6137
H 8.14726 1.31625 3.31505
H 9.55024 0.604924 3.59498
O 10.7914 6.63604 43.7407
H 10.0478 6.79818 43.2214
H 10.7283 7.35779 44.3303
O 14.3817 7.04624 5.23753
H 14.1897 8.01277 5.26671
H 13.5594 6.63082 5.65735
O 11.6098 7.34702 6.18212
H 11.0027 6.95378 6.84327
H 10.938 7.68848 5.51136
O 8.76622 1.8067 6.26576
H 8.88162 1.78461 5.30234
H 8.67343 0.940412 6.66503
O 7.91253 5.6222 4.36057
H 8.42789 5.08052 3.73329
H 7.01939 5.58885 3.97529
O 13.205 43.3202 5.34841
H 13.5568 42.4793 5.64606
H 13.4205 44.0004 6.06363
O 10.9811 2.48006 8.31205
H 10.323 2.46076 7.56999
H 11.0812 3.41001 8.53972
O 7.72782 4.52016 6.85061
H 8.23134 3.64877 6.73936
H 7.68856 4.81587 5.95374
O 8.8395 3.97777 2.23656
H 9.04216 3.17033 2.74163
H 9.31558 4.06156 1.45369
O 10.4696 4.05951 -0.220607
H 11.3367 3.62301 -0.196954
H 10.6405 4.91784 -0.603998
O 10.9445 43.5109 3.80293
H 10.931 42.6063 3.51191
H 11.764 43.5308 4.24751
O 14.1169 0.914249 7.40743
H 15.0516 1.02388 7.18179
H 13.6172 1.73018 7.55829
O 11.5099 43.6152 9.57105
H 12.3509 43.3179 9.24613
H 11.5863 44.5874 9.56798
O 9.80521 6.1435 7.84476
H 9.49501 6.51007 8.67226
H 9.06371 5.61182 7.50996
O 8.84657 43.6954 7.90933
H 9.76423 43.6333 8.22947
H 8.27502 43.8142 8.65216
O 17.0299 1.34187 6.30603
H 17.5067 2.14089 6.09254
H 17.6676 0.682331 6.14582
O 19.7204 4.7116 0.589809
H 20.5485 4.85146 1.0733
H 19.0902 4.5513 1.25149
O 22.5448 4.97296 2.01075
H 23.4356 4.6687 1.81472
H 22.7768 5.9127 2.06277
O 21.5362 3.91215 4.4518
H 22.0035 4.30104 3.68878
H 21.9338 3.05485 4.5462
O 20.2015 -0.125846 5.86364
H 21.081 0.215908 5.52446
H 20.328 43.0409 5.71593
O 18.6863 3.90176 5.94897
H 19.1868 3.94616 6.76992
H 19.4186 3.93346 5.28489
O 19.2487 3.49147 43.3034
H 18.9969 4.37743 43.0878
H 19.5364 3.68419 44.1838
O 22.6043 1.2044 4.97115
H 23.1132 1.17647 5.83657
H 23.3192 0.978962 4.32623
O 19.9136 3.52868 8.63981
H 20.136 2.55622 8.61871
H 19.3116 3.5744 9.38984
O 16.7877 5.49804 4.73317
H 15.9609 5.95852 5.00546
H 17.1555 5.11554 5.52453
O 17.3399 4.41945 2.35443
H 16.5189 4.00469 2.08527
H 17.138 4.85784 3.20332
O 21.6518 3.22061 41.8834
H 20.798 3.09566 42.4017
H 21.6754 2.67885 41.1064
O 24.5074 0.368248 3.58222
H 25.4976 0.672436 3.56804
H 24.4667 43.6153 3.95899
O 24.3894 0.633064 7.08198
H 25.0968 1.33846 7.09428
H 24.7715 43.8484 6.97912
O 22.4572 5.64466 6.46821
H 21.9067 5.4231 7.19174
H 22.1202 5.12434 5.66408
O 20.807 0.909442 8.65342
H 21.7299 0.645197 8.92441
H 20.5474 0.447028 7.7836
O 27.277 0.887026 3.20157
H 28.0173 0.290132 2.84177
H 27.5307 1.49586 3.92484
O 28.3802 7.74838 45.0961
H 28.929 7.90411 44.2956
H 28.6998 8.46814 45.7233
O 30.6497 9.43099 1.58559
H 31.261 9.57974 2.24258
H 31.148 9.03247 0.903593
O 28.7368 8.00247 8.44275
H 27.8659 8.39088 8.61
H 28.5614 7.3646 7.74822
O 28.3844 2.77345 5.76378
H 29.2963 2.57112 6.05246
H 27.7241 2.59836 6.44406
O 28.1601 5.74358 5.89145
H 28.1351 4.79552 6.0484
H 28.3197 5.76947 5.00427
O 30.6595 41.5014 0.785102
H 30.2065 41.1259 45.2385
H 31.5334 41.4574 0.380352
O 30.3679 1.29055 7.92245
H 30.6 1.32274 8.8408
H 30.8415 0.567194 7.55837
O 25.0993 4.84924 6.86948
H 24.1607 5.0572 6.71037
H 25.6005 5.53735 6.44421
O 24.8284 3.70199 0.950479
H 25.0534 2.93795 1.43712
H 25.6491 4.24558 0.677372
O 26.7725 5.16798 -0.294379
H 26.819 4.85189 43.982
H 27.396 5.90502 -0.284539
O 29.3167 43.7509 2.3024
H 29.7595 44.0431 1.50494
H 29.3745 42.7785 2.23093
O 30.6145 40.6658 42.8133
H 31.2308 40.1715 42.2874
H 29.8647 40.6281 42.1868
O 34.6826 37.96 17.4802
H 33.8999 38.4002 17.377
H 35.2677 38.6684 17.6289
O 31.874 7.96263 9.18292
H 30.9919 8.27882 9.01005
H 31.6727 7.07947 9.54808
O 26.3934 2.64785 7.72958
H 25.7986 3.51051 7.46307
H 26.7219 2.87983 8.67597
    
    &END COORD
  &END SUBSYS
  &DFT
    BASIS_SET_FILE_NAME  BASIS_SET
    POTENTIAL_FILE_NAME  GTH_POTENTIALS
    &QS
      EPS_DEFAULT 1.0E-10
    &END QS
    &MGRID
      NGRIDS 4
      CUTOFF 135
      REL_CUTOFF 115
    &END MGRID
    &XC
      &XC_FUNCTIONAL PADE
      &END XC_FUNCTIONAL
    &END XC
    &SCF
      SCF_GUESS ATOMIC
      EPS_SCF 1.0E-7
      MAX_SCF 300
      &DIAGONALIZATION  ON
        ALGORITHM STANDARD
      &END DIAGONALIZATION
      &MIXING  T
        METHOD BROYDEN_MIXING
        ALPHA 0.4
        NBROYDEN 8
      &END MIXING
    &END SCF
  &END DFT
  &PRINT
    &FORCES ON
    &END FORCES
  &END PRINT
&END FORCE_EVAL
