&GLOBAL
  PROJECT H2O_bulk
  RUN_TYPE ENERGY_FORCE
  PRINT_LEVEL LOW
&END GLOBAL
&FORCE_EVAL
  METHOD Quickstep
  &SUBSYS
    &KIND H
      ELEMENT   H
      BASIS_SET DZVP-GTH-PBE
      POTENTIAL GTH-PBE-q1
    &END KIND
    &KIND O
      ELEMENT   O
      BASIS_SET DZVP-GTH-PBE
      POTENTIAL GTH-PBE-q6
    &END KIND
    &CELL
      A     46.937    0.000000000    0.000000000
      B     0.000000000    44.121    0.000000000
      C     0.000000000    0.000000000    45.182
    &END CELL
    &COORD

O 1.51613 0.670289 0.101054
H 0.705524 44.4227 -0.360206
H 1.16288 0.935426 0.950336
O 4.45546 5.24118 0.10256
H 4.63469 6.04267 -0.454843
H 4.79866 4.49482 44.7822
O 5.12019 4.56498 2.82442
H 5.27138 3.5742 2.69339
H 4.83974 4.91424 1.96306
O 2.83278 4.65605 4.69855
H 3.33332 4.65851 5.5083
H 3.5048 4.52554 4.00172
O 46.9749 1.09115 2.39389
H 0.325574 1.67064 3.03836
H 46.144 1.50015 2.11356
O 1.46141 7.19131 4.19563
H 1.92857 6.36007 4.36547
H 0.844927 7.20448 4.91965
O 5.51117 2.53537 44.4376
H 5.06298 1.67223 44.3542
H 6.33359 2.48212 43.8457
O 0.560727 2.74362 4.57026
H 1.29514 3.38079 4.65178
H 0.345664 2.40317 5.4224
O 3.27649 9.10592 3.22556
H 2.66211 8.43816 3.50012
H 3.89556 9.25156 3.91804
O 46.286 7.01351 6.52332
H 46.1509 6.13443 6.88659
H 45.5555 7.55458 6.83708
O 37.5402 15.8482 39.7961
H 36.6574 15.8737 40.0617
H 37.8503 16.7509 40.0085
O 4.30556 0.221748 45.0365
H 4.66221 43.5127 44.7257
H 3.36243 0.178318 45.1114
O 6.00461 1.84617 1.96843
H 6.04197 2.059 1.0437
H 5.299 1.26057 2.15522
O 13.7629 42.5854 9.75363
H 14.4517 42.3694 10.37
H 14.2241 42.5049 8.91371
O 4.44218 4.59262 6.9506
H 5.39185 4.57503 7.00153
H 4.123 5.03365 7.74454
O 42.2196 36.5265 19.2974
H 42.8409 37.1433 19.4861
H 41.4517 36.9448 19.6227
O 9.46717 1.27614 3.55477
H 8.73672 0.959314 2.97818
H 10.1322 0.579127 3.64138
O 10.258 6.88457 43.369
H 10.8576 7.46102 43.8814
H 9.36775 7.19302 43.5792
O 14.2468 6.13553 5.15109
H 13.84 7.03333 5.09079
H 13.4266 5.639 5.10563
O 11.62 6.67978 5.50285
H 11.3587 6.75064 6.44852
H 10.7889 6.47831 5.00752
O 8.42304 1.95933 7.13448
H 8.40538 1.66533 6.2191
H 8.57538 1.12661 7.57622
O 7.86374 4.97247 3.93541
H 8.53528 4.55745 3.39676
H 7.03784 4.90542 3.36972
O 13.4146 43.4301 5.86968
H 13.5143 42.6254 6.3788
H 13.764 44.171 6.46224
O 11.2058 2.81925 7.96886
H 10.423 2.39814 7.60414
H 10.8737 3.67386 8.26185
O 7.22831 4.54355 6.59937
H 7.64235 3.68333 6.89878
H 7.25307 4.61933 5.62955
O 10.174 3.9408 2.76558
H 10.1544 3.00437 2.90902
H 10.2513 4.04115 1.79028
O 10.2896 4.26978 44.4867
H 11.0327 3.98964 43.9592
H 10.2501 5.13316 44.1307
O 11.528 43.4983 3.93755
H 12.02 43.0825 3.22693
H 12.1187 43.5528 4.71548
O 14.5876 1.22207 7.38678
H 15.5018 1.394 7.13916
H 14.1133 2.04988 7.52552
O 11.7324 44.8468 9.79432
H 12.5064 44.3097 9.56567
H 11.8293 1.57649 9.29862
O 9.95694 5.38343 8.1862
H 9.47981 5.45596 9.01833
H 9.25615 5.45924 7.56097
O 9.12153 43.8966 8.53322
H 9.97091 44.0631 8.98612
H 9.27558 43.0352 8.18794
O 17.2064 1.33548 6.43448
H 17.7383 2.15003 6.44001
H 17.9229 0.66955 6.39517
O 19.6568 5.36691 0.673613
H 20.4592 5.14338 1.09951
H 18.8899 5.12543 1.21493
O 22.1922 4.71206 1.82758
H 22.944 4.23162 1.41538
H 22.4523 5.5942 1.99047
O 21.4729 3.62366 4.774
H 21.6243 3.93841 3.86227
H 21.7971 2.69235 4.81828
O 20.7138 43.5512 6.47474
H 21.249 -0.173032 5.77767
H 20.9484 42.6218 6.45504
O 18.8055 3.35696 6.28797
H 19.2835 3.40516 7.17837
H 19.4811 3.38239 5.60709
O 19.4564 4.11858 43.4848
H 18.7645 4.65132 43.0898
H 19.5261 4.56593 44.391
O 22.703 0.917303 4.84336
H 23.2771 0.989222 5.63762
H 23.2578 0.523269 4.17214
O 20.4078 3.34709 8.72013
H 20.709 2.40457 8.845
H 19.9817 3.57714 9.56412
O 16.7399 5.17065 4.45781
H 15.8857 5.50843 4.73011
H 17.2078 4.77176 5.17507
O 17.284 4.43229 1.935
H 16.5113 4.69768 1.43429
H 17.0514 4.5606 2.8891
O 21.5244 4.43841 41.7145
H 20.7635 4.26929 42.3662
H 22.086 3.68561 41.6085
O 24.7042 -0.337794 3.23752
H 25.4981 0.19633 3.35426
H 24.4433 44.0854 2.36166
O 24.1599 0.548392 7.33211
H 24.7527 1.23891 7.70341
H 24.7317 43.864 7.22467
O 22.7133 5.18377 6.73449
H 22.4053 4.86453 7.5546
H 22.1585 4.68124 6.0981
O 20.6788 0.727228 9.00105
H 21.3364 0.343969 9.66342
H 20.8449 0.297091 8.17765
O 27.7684 1.18504 3.20988
H 28.4856 0.700636 2.93527
H 28.1433 1.73354 3.88441
O 28.1331 7.70117 0.547676
H 27.2725 8.13249 45.7824
H 28.7073 8.39586 0.598426
O 30.3346 9.68472 0.768334
H 30.7168 10.5512 0.642034
H 31.0929 9.09819 0.915147
O 28.9684 7.26166 8.2074
H 28.4512 6.97774 8.97795
H 28.7041 6.65621 7.46939
O 28.5667 3.15966 5.8736
H 29.1562 2.75366 6.48392
H 27.7766 2.91126 6.38324
O 28.1999 5.63251 6.08599
H 28.4627 4.7183 5.96731
H 28.4418 6.16463 5.24897
O 30.294 41.5483 0.765754
H 31.145 41.3704 0.299763
H 29.6617 41.1976 45.3321
O 30.3024 1.56481 7.49021
H 31.1879 1.86018 7.78649
H 30.561 0.815124 6.96199
O 25.4065 5.33896 6.87577
H 24.4714 5.26252 6.62688
H 25.9892 5.81613 6.27902
O 24.7657 3.73335 0.353482
H 25.3602 2.99368 0.333163
H 25.3588 4.4726 -0.0783642
O 27.0742 5.35193 44.5787
H 27.8493 5.07794 44.0562
H 27.3965 6.05578 -0.0267514
O 29.8531 43.7478 2.45581
H 30.6659 44.2098 2.49578
H 30.0254 43.1121 1.72957
O 29.6976 40.6996 43.2772
H 29.5371 41.1186 42.416
H 29.0193 40.1061 43.3017
O 35.2562 37.0791 18.8072
H 36.1136 37.2998 19.2404
H 35.4524 36.1699 18.4127
O 31.2791 8.50347 9.13629
H 30.4721 8.18245 8.81056
H 31.877 8.10931 8.53296
O 26.3202 2.82697 7.43635
H 25.9946 3.86983 7.38144
H 26.6269 2.70134 8.29905
    
    &END COORD
  &END SUBSYS
  &DFT
    BASIS_SET_FILE_NAME  BASIS_SET
    POTENTIAL_FILE_NAME  GTH_POTENTIALS
    &QS
      EPS_DEFAULT 1.0E-10
    &END QS
    &MGRID
      NGRIDS 4
      CUTOFF 135
      REL_CUTOFF 115
    &END MGRID
    &XC
      &XC_FUNCTIONAL PADE
      &END XC_FUNCTIONAL
    &END XC
    &SCF
      SCF_GUESS ATOMIC
      EPS_SCF 1.0E-7
      MAX_SCF 300
      &DIAGONALIZATION  ON
        ALGORITHM STANDARD
      &END DIAGONALIZATION
      &MIXING  T
        METHOD BROYDEN_MIXING
        ALPHA 0.4
        NBROYDEN 8
      &END MIXING
    &END SCF
  &END DFT
  &PRINT
    &FORCES ON
    &END FORCES
  &END PRINT
&END FORCE_EVAL
