&GLOBAL
  PROJECT H2O_bulk
  RUN_TYPE ENERGY_FORCE
  PRINT_LEVEL LOW
&END GLOBAL
&FORCE_EVAL
  METHOD Quickstep
  &SUBSYS
    &KIND H
      ELEMENT   H
      BASIS_SET DZVP-GTH-PBE
      POTENTIAL GTH-PBE-q1
    &END KIND
    &KIND O
      ELEMENT   O
      BASIS_SET DZVP-GTH-PBE
      POTENTIAL GTH-PBE-q6
    &END KIND
    &CELL
      A     46.937    0.000000000    0.000000000
      B     0.000000000    44.121    0.000000000
      C     0.000000000    0.000000000    45.182
    &END CELL
    &COORD

O -0.0493457 43.5792 1.09797
H 46.1507 43.0963 1.4991
H -0.20822 0.386485 1.40649
O 5.52498 4.36016 44.323
H 4.87466 5.04246 44.194
H 5.52368 3.94626 43.4578
O 5.1831 3.32264 1.71606
H 4.84836 2.43431 1.75666
H 5.00378 3.55316 0.799367
O 3.84189 4.70212 3.61403
H 4.411 4.52823 4.3909
H 4.26527 4.27933 2.8813
O 46.9861 2.20729 1.98208
H 0.528386 2.53734 2.90207
H 46.4068 2.92138 1.62216
O 3.03961 7.82568 3.37985
H 3.51185 6.94963 3.4129
H 3.26054 8.37437 4.11268
O 5.82251 2.65171 41.7776
H 5.86759 1.72847 41.7085
H 6.22791 2.98176 40.9899
O 1.27879 3.43246 4.10561
H 2.05311 3.8325 3.72988
H 0.888038 4.13537 4.55691
O 1.83556 8.92269 0.716442
H 2.39685 8.64638 1.45564
H 1.39026 9.68735 1.06384
O 3.81591 9.53854 5.90181
H 4.4453 9.66047 6.59157
H 3.10212 10.0631 6.24925
O 29.4203 22.5128 35.8997
H 28.4604 22.3932 36.0341
H 29.5214 23.4162 36.0506
O 2.60852 42.6543 0.294262
H 2.69254 42.2215 44.6445
H 1.66029 42.861 0.537884
O 4.46241 0.435634 1.864
H 5.15537 43.986 2.11485
H 4.0667 0.10955 1.08291
O 13.8305 42.2749 8.89694
H 14.2285 41.7714 9.64543
H 14.6012 42.4664 8.35474
O 5.23805 4.28971 6.34223
H 5.56152 3.56318 6.85098
H 6.0404 4.79177 6.2329
O 41.4634 29.723 27.7388
H 42.046 29.8648 27.0743
H 41.5296 28.7682 27.835
O 11.3864 0.739628 2.32322
H 11.2619 0.565461 1.39683
H 11.7968 -0.148067 2.50305
O 9.89223 5.3901 44.3311
H 10.7016 5.47494 43.8161
H 9.23566 5.35705 43.6024
O 15.5325 5.43199 5.65143
H 15.3333 6.30412 5.47589
H 14.6622 4.97032 5.56
O 12.521 4.2092 5.60183
H 11.9448 4.99202 5.80455
H 12.3532 3.82835 4.66999
O 7.77998 2.9015 8.06349
H 8.03799 1.99501 7.95946
H 7.91058 3.0708 9.0157
O 7.56431 4.57645 3.33273
H 8.27894 4.86374 2.81472
H 6.98423 4.00565 2.81927
O 12.9618 42.1414 5.62191
H 12.7558 41.7141 6.43204
H 13.5875 42.816 5.923
O 14.1762 2.41599 7.35928
H 13.5393 2.72952 6.69183
H 14.5549 3.24788 7.641
O 7.9746 5.01573 5.92876
H 7.89057 4.18147 6.39668
H 7.91561 4.71383 4.98182
O 12.5024 3.41003 2.90085
H 12.522 2.49437 2.64283
H 12.0034 3.86847 2.25745
O 10.0817 5.74413 2.01765
H 10.1669 6.59049 2.51424
H 9.92917 5.9571 1.09701
O 11.9067 42.188 3.20431
H 12.6354 41.7586 2.73464
H 12.2127 42.2172 4.20528
O 15.3036 43.7542 6.91671
H 16.144 43.6496 6.45835
H 15.3172 0.559985 7.23926
O 12.9811 1.21108 9.59196
H 13.1836 0.288794 9.43371
H 13.1336 1.61948 8.77455
O 10.6042 6.47976 6.08745
H 10.5081 7.37523 6.43622
H 9.71915 6.0655 6.1549
O 10.1517 2.30032 10.4402
H 11.0676 2.03299 10.3419
H 9.93269 1.86034 11.2537
O 18.2186 -0.0497269 5.61577
H 18.6143 0.770079 5.39086
H 18.852 43.6393 6.17041
O 19.7151 5.37499 44.5581
H 19.8643 4.39125 44.5895
H 19.0394 5.53321 0.0671224
O 22.5814 3.83521 2.48993
H 23.3456 4.13354 2.04044
H 21.8992 3.68837 1.82841
O 21.997 3.81536 5.11628
H 22.1284 3.95626 4.15146
H 22.3205 2.8984 5.30912
O 20.8353 43.7959 7.45381
H 21.5381 -0.122307 6.80419
H 21.1527 43.0231 7.94429
O 19.4072 3.05807 5.26279
H 19.3393 3.13147 6.21141
H 20.3687 3.36942 5.04871
O 19.8002 7.21188 42.0397
H 18.8842 7.50477 42.1035
H 19.9013 6.55772 42.7309
O 22.8093 1.20127 5.80116
H 23.3848 0.935073 6.53032
H 23.1098 0.624146 5.08826
O 20.1214 4.02079 8.67856
H 20.2511 3.08854 9.06289
H 19.5895 4.50955 9.27695
O 17.3796 4.42651 3.74725
H 16.8784 4.72066 4.52641
H 18.0958 3.85053 4.13532
O 17.8424 5.98636 1.39452
H 17.0894 5.66461 0.902782
H 17.7862 5.58339 2.29296
O 20.9093 9.91306 41.1319
H 20.9718 8.99461 41.3191
H 21.1319 10.3096 41.969
O 25.2603 43.5455 5.3115
H 25.9584 44.099 4.79739
H 25.6405 42.6769 5.45701
O 24.4626 0.21064 7.69006
H 24.8556 0.817788 8.17338
H 25.0151 44.1548 6.90915
O 22.7113 4.94696 7.6762
H 21.8488 4.6235 8.08357
H 22.5839 4.74398 6.76707
O 20.6529 1.53429 9.79051
H 19.9379 1.1498 10.4093
H 20.6734 0.95973 8.99731
O 27.5696 0.258359 4.09409
H 27.6908 0.157593 3.16254
H 28.3162 0.710589 4.48294
O 27.3131 8.27046 0.170644
H 27.6801 9.07285 0.484671
H 27.2611 8.4102 44.3965
O 27.4356 9.58255 42.7267
H 26.8251 9.51522 41.9562
H 28.2513 10.0907 42.4063
O 30.0676 8.24798 6.61708
H 30.5402 8.62725 5.84186
H 29.97 7.23462 6.4371
O 29.1501 2.76034 6.30895
H 29.8864 2.33934 6.7156
H 28.3958 2.62948 6.85557
O 29.0997 5.76061 6.18407
H 29.3679 4.86913 6.23073
H 28.1431 5.89519 6.43127
O 28.4157 41.5068 45.0201
H 27.9658 40.6935 45.3048
H 28.6144 41.145 44.1008
O 31.8626 1.98221 6.44616
H 32.4929 2.46153 5.8977
H 32.4157 1.73318 7.18854
O 25.1038 4.12921 8.50096
H 24.1854 4.32771 8.2274
H 25.3697 4.65173 9.29242
O 24.9015 4.67914 1.13193
H 25.8286 4.64155 1.35382
H 24.6854 5.52642 0.694051
O 24.7237 7.42452 0.574392
H 24.4472 7.86585 46.5225
H 25.5203 7.952 0.479026
O 28.7052 44.0674 1.51951
H 29.6279 44.0257 1.6932
H 28.6533 43.5698 0.687127
O 25.7483 39.7111 44.9565
H 25.2593 39.1679 45.5051
H 25.0454 40.1537 -0.706959
O 35.5562 32.2666 25.4677
H 35.0965 31.4753 25.7107
H 34.8569 32.8994 25.6535
O 28.5899 10.0074 8.33517
H 29.0471 9.60704 7.56958
H 27.707 10.1888 8.08416
O 26.8039 2.02486 8.2113
H 26.1662 2.79346 8.32815
H 27.084 1.99925 9.15581
    
    &END COORD
  &END SUBSYS
  &DFT
    BASIS_SET_FILE_NAME  BASIS_SET
    POTENTIAL_FILE_NAME  GTH_POTENTIALS
    &QS
      EPS_DEFAULT 1.0E-10
    &END QS
    &MGRID
      NGRIDS 4
      CUTOFF 135
      REL_CUTOFF 115
    &END MGRID
    &XC
      &XC_FUNCTIONAL PADE
      &END XC_FUNCTIONAL
    &END XC
    &SCF
      SCF_GUESS ATOMIC
      EPS_SCF 1.0E-7
      MAX_SCF 300
      &DIAGONALIZATION  ON
        ALGORITHM STANDARD
      &END DIAGONALIZATION
      &MIXING  T
        METHOD BROYDEN_MIXING
        ALPHA 0.4
        NBROYDEN 8
      &END MIXING
    &END SCF
  &END DFT
  &PRINT
    &FORCES ON
    &END FORCES
  &END PRINT
&END FORCE_EVAL
