&GLOBAL
  PROJECT H2O_bulk
  RUN_TYPE ENERGY_FORCE
  PRINT_LEVEL LOW
&END GLOBAL
&FORCE_EVAL
  METHOD Quickstep
  &SUBSYS
    &KIND H
      ELEMENT   H
      BASIS_SET DZVP-GTH-PBE
      POTENTIAL GTH-PBE-q1
    &END KIND
    &KIND O
      ELEMENT   O
      BASIS_SET DZVP-GTH-PBE
      POTENTIAL GTH-PBE-q6
    &END KIND
    &CELL
      A     46.937    0.000000000    0.000000000
      B     0.000000000    44.121    0.000000000
      C     0.000000000    0.000000000    45.182
    &END CELL
    &COORD

O 1.37612 2.66456 7.01161
H 0.732294 2.77446 7.64872
H 1.27597 3.50055 6.50144
O 4.86389 2.42541 43.5175
H 4.32966 3.14324 43.2249
H 4.67001 1.62553 42.9948
O 6.03091 2.04705 1.34448
H 5.48426 1.41519 1.87767
H 5.83164 2.00698 0.400635
O 4.72944 4.73831 1.75697
H 5.33823 5.14015 2.38898
H 5.1209 3.84599 1.49644
O 1.03978 5.0986 5.62932
H 1.27699 5.31258 4.73663
H 0.20788 5.57446 5.96092
O 4.35834 6.65052 44.5353
H 4.5759 6.3251 0.294042
H 5.16414 7.04574 44.1972
O 3.31843 4.63895 42.8817
H 3.89911 5.18928 43.4623
H 2.49417 5.01547 43.0192
O 2.43304 5.78176 3.15823
H 3.1933 5.26582 2.68561
H 1.91053 6.02898 2.39744
O 4.30082 9.98493 44.3082
H 3.98928 9.76818 43.4202
H 4.2251 10.9055 44.3795
O 6.59988 8.05497 44.09
H 7.48248 8.26306 44.3652
H 6.16691 8.92944 44.1075
O 13.6956 35.3715 28.3705
H 12.7738 35.3339 28.5163
H 13.7702 36.3007 28.1139
O 1.13266 1.04929 4.62151
H 0.259483 0.724227 4.50846
H 1.30007 1.37777 5.51167
O 4.03883 0.363944 3.2825
H 3.42534 43.7368 3.33654
H 3.33541 1.03537 3.4058
O 15.7439 42.7669 6.53972
H 16.2553 42.2986 7.17344
H 16.2509 43.6147 6.35657
O 6.97492 5.5847 3.15444
H 6.952 5.77953 4.06999
H 7.56089 4.78439 3.085
O 46.5041 14.633 45.7551
H 46.2982 15.4767 46.1814
H 45.5746 14.1931 45.7759
O 13.7564 -0.39166 0.282104
H 13.9689 42.8286 0.682293
H 14.4176 -0.285191 44.7718
O 10.2462 1.88831 42.4349
H 10.7395 1.56749 41.6626
H 9.30967 1.95722 42.2416
O 15.6988 5.74883 4.01232
H 15.3833 6.54644 4.39528
H 14.9392 5.15472 4.14548
O 13.1513 3.94085 4.74563
H 12.2859 4.42654 4.97845
H 13.003 3.56728 3.89501
O 7.765 1.69839 5.41302
H 6.86833 1.42068 5.28765
H 8.34613 0.968242 5.59632
O 9.10816 1.29339 1.87295
H 9.69192 1.0746 1.15869
H 8.24146 1.53519 1.46025
O 15.7669 41.3312 3.96778
H 15.6907 41.7337 4.85498
H 16.613 40.9294 3.9023
O 13.8502 2.00986 6.46115
H 13.5529 2.79975 5.95328
H 13.7951 2.27978 7.3569
O 8.76112 3.45945 3.43124
H 8.20392 2.96601 4.08663
H 9.1732 2.78148 2.87284
O 13.2411 2.96348 1.79139
H 14.0291 2.49318 1.43783
H 12.5846 2.558 1.21729
O 11.2732 1.01966 45.2291
H 11.017 1.44391 44.3493
H 11.9822 0.391956 45.175
O 14.0452 41.274 1.58416
H 13.4101 40.6554 1.88982
H 14.5456 41.3647 2.34887
O 16.6214 1.11793 6.10728
H 17.0785 1.33578 5.26678
H 15.8429 1.70381 6.05106
O 12.8524 43.6239 7.09382
H 13.2412 42.8142 6.85862
H 13.3839 0.209314 6.66788
O 10.6852 4.83329 5.4342
H 10.3772 4.56792 6.29698
H 10.0519 4.56339 4.78249
O 9.63697 43.6273 6.75464
H 10.6053 43.6113 6.87321
H 9.27189 43.0682 7.43991
O 18.2621 2.1582 3.85149
H 18.3065 3.15901 3.911
H 19.0687 1.89751 3.47296
O 17.738 8.81212 45.7835
H 18.4735 9.01468 45.2647
H 17.9519 7.95376 1.0356
O 24.3954 7.04169 3.04971
H 24.2622 6.66369 2.19718
H 25.3536 7.06477 3.14909
O 23.47 6.13757 5.64149
H 23.6487 6.79238 4.95197
H 23.687 5.33078 5.24627
O 20.9199 0.608437 9.21544
H 20.4169 0.18349 9.89349
H 21.6236 0.0193021 8.95462
O 20.3633 6.21665 5.66972
H 20.3705 6.11603 6.62176
H 21.293 6.21641 5.45912
O 16.7677 11.404 0.846312
H 15.9048 11.6718 0.58831
H 16.9155 10.4518 0.715574
O 23.3287 43.394 8.42216
H 24.1492 43.796 8.84788
H 23.3437 43.7555 7.53751
O 19.6713 5.42174 8.30111
H 19.5711 4.40217 8.19051
H 18.8112 5.75796 8.55726
O 18.6099 4.9434 3.96868
H 17.7171 5.09781 4.3175
H 19.2073 5.29327 4.68341
O 17.9159 6.58726 1.97903
H 18.5247 6.23917 2.63489
H 17.1631 6.06785 2.13128
O 17.5141 13.7796 2.02463
H 17.2224 12.8748 1.90761
H 16.7961 14.1672 1.50235
O 28.2089 42.8162 7.67894
H 28.2523 42.6781 6.71516
H 29.0247 42.4763 8.00967
O 25.9549 43.9725 9.15181
H 26.5593 0.623705 9.25018
H 26.4614 43.379 8.63894
O 24.3953 5.45881 8.92259
H 23.456 5.24321 9.00159
H 24.4415 5.66899 7.9791
O 18.8757 2.6367 8.22689
H 18.26 2.25492 7.63609
H 19.6049 1.99782 8.38644
O 28.4791 41.701 5.10077
H 27.689 41.8311 4.49426
H 29.2796 41.5723 4.59963
O 23.3068 7.77676 42.2546
H 22.8003 7.60503 41.5499
H 23.4837 8.73428 42.3267
O 24.1897 10.8063 42.7476
H 24.8584 11.105 42.1146
H 23.5951 11.5808 42.6373
O 30.5246 7.59252 4.57953
H 30.81 8.2779 5.1887
H 30.1931 6.83372 5.09227
O 30.3085 4.01133 7.72959
H 31.0209 3.32782 7.73629
H 29.5426 3.48314 7.98215
O 29.6057 5.1269 5.35466
H 30.0007 4.80642 6.228
H 29.9526 4.56654 4.60017
O 25.316 43.4422 0.512791
H 25.2711 42.7695 -0.191569
H 25.261 0.103727 0.045753
O 32.6788 2.17424 7.77464
H 33.0215 1.85585 6.95523
H 33.3708 2.02483 8.41037
O 26.6546 4.25273 10.2334
H 25.8012 4.46734 9.95691
H 27.0313 5.15272 10.3137
O 23.8515 6.14844 0.300432
H 23.061 6.40776 -0.183108
H 24.3562 5.71845 44.7945
O 24.061 5.03892 42.8482
H 24.5759 4.43703 42.3174
H 24.0856 5.9639 42.4649
O 26.7981 42.0303 2.59799
H 25.9415 41.4665 2.65083
H 26.4849 42.7014 1.96096
O 24.0598 41.1853 44.5606
H 23.609 40.9179 45.3713
H 23.9721 40.3422 44.0281
O 29.4671 24.6582 36.5694
H 29.5815 25.586 36.344
H 30.2206 24.2457 36.0976
O 29.4638 9.52424 2.90199
H 29.5028 8.68321 3.43611
H 30.1805 9.49653 2.20873
O 27.9948 1.77514 9.63275
H 27.603 2.58873 9.9348
H 28.5322 1.52118 10.4662
    
    &END COORD
  &END SUBSYS
  &DFT
    BASIS_SET_FILE_NAME  BASIS_SET
    POTENTIAL_FILE_NAME  GTH_POTENTIALS
    &QS
      EPS_DEFAULT 1.0E-10
    &END QS
    &MGRID
      NGRIDS 4
      CUTOFF 135
      REL_CUTOFF 115
    &END MGRID
    &XC
      &XC_FUNCTIONAL PADE
      &END XC_FUNCTIONAL
    &END XC
    &SCF
      SCF_GUESS ATOMIC
      EPS_SCF 1.0E-7
      MAX_SCF 300
      &DIAGONALIZATION  ON
        ALGORITHM STANDARD
      &END DIAGONALIZATION
      &MIXING  T
        METHOD BROYDEN_MIXING
        ALPHA 0.4
        NBROYDEN 8
      &END MIXING
    &END SCF
  &END DFT
  &PRINT
    &FORCES ON
    &END FORCES
  &END PRINT
&END FORCE_EVAL
