&GLOBAL
  PROJECT H2O_bulk
  RUN_TYPE ENERGY_FORCE
  PRINT_LEVEL LOW
&END GLOBAL
&FORCE_EVAL
  METHOD Quickstep
  &SUBSYS
    &KIND H
      ELEMENT   H
      BASIS_SET DZVP-GTH-PBE
      POTENTIAL GTH-PBE-q1
    &END KIND
    &KIND O
      ELEMENT   O
      BASIS_SET DZVP-GTH-PBE
      POTENTIAL GTH-PBE-q6
    &END KIND
    &CELL
      A     46.937    0.000000000    0.000000000
      B     0.000000000    44.121    0.000000000
      C     0.000000000    0.000000000    45.182
    &END CELL
    &COORD

O 3.06581 3.39793 6.7403
H 2.90523 3.75378 7.60122
H 2.87853 4.1289 6.14505
O 4.28838 1.60522 43.551
H 3.78977 2.40334 43.2643
H 4.27931 0.98469 42.7861
O 6.00563 2.19672 0.801496
H 5.72693 1.56126 1.45323
H 5.55388 1.94748 -0.0374237
O 6.09588 5.33445 0.673502
H 6.88309 5.74998 1.05434
H 6.21358 4.37053 0.829492
O 2.74298 5.38071 4.71012
H 3.61365 5.57214 4.34072
H 2.22993 6.20302 4.47352
O 3.58519 5.91211 43.5976
H 4.22974 5.80252 44.276
H 3.84184 6.74729 43.1664
O 2.77986 3.43306 42.1884
H 3.01308 4.31693 42.559
H 1.95851 3.50978 41.7733
O 4.99672 6.4447 3.14145
H 5.88363 6.58927 3.37767
H 4.99522 5.88459 2.41283
O 6.87991 8.55758 43.0319
H 7.75574 8.91302 42.9908
H 6.97053 7.94896 43.7507
O 4.40613 7.9548 42.0306
H 5.29989 8.38896 42.0992
H 3.84816 8.58122 41.5786
O 4.42828 43.033 23.9069
H 3.94403 42.1949 23.7398
H 3.72448 43.6238 24.0326
O 4.23963 1.02825 5.76606
H 3.87936 0.331625 6.28823
H 3.97109 1.92878 6.0982
O 5.92859 0.710195 3.21368
H 6.58846 1.33771 3.49361
H 5.27039 0.66155 3.91895
O 18.2864 42.3027 2.76129
H 18.4785 41.6636 3.46021
H 17.9145 43.1208 3.13803
O 7.77627 6.38864 2.97768
H 8.40936 6.74311 3.59746
H 8.1151 5.48656 2.86236
O 2.41795 6.8265 11.5203
H 2.64112 7.6151 10.9347
H 2.07149 6.16614 10.8374
O 11.4083 42.2559 2.09408
H 12.2984 41.8949 1.92479
H 10.7944 41.5176 2.10707
O 10.7529 -0.0117639 42.8802
H 10.0925 0.0621119 42.2047
H 11.5752 0.11264 42.377
O 15.4147 6.61002 3.65047
H 15.025 7.08551 4.38067
H 14.7129 5.97196 3.38466
O 14.2732 2.98542 3.66067
H 13.386 3.33096 3.92502
H 14.1392 2.51687 2.84359
O 9.4837 2.85447 6.15709
H 9.10668 3.18818 6.99114
H 9.75149 1.96393 6.36628
O 8.69183 1.87368 2.06844
H 9.32547 1.44166 1.46222
H 7.82144 1.90964 1.64857
O 16.1931 41.8259 0.584462
H 16.7963 41.9292 1.3244
H 16.7234 41.4282 -0.0685625
O 15.0138 0.951565 5.47059
H 14.6547 1.74271 4.9987
H 14.7906 1.13261 6.3927
O 9.26068 4.09067 3.39358
H 9.01565 3.70953 4.29539
H 9.04878 3.25868 2.91016
O 12.9577 2.2316 1.219
H 12.8225 2.45975 0.263157
H 12.2513 1.57801 1.28472
O 10.734 0.427571 0.700037
H 10.5499 0.0628835 45.0334
H 11.0506 43.8354 1.3436
O 13.7452 40.8445 1.96879
H 13.6322 39.9545 1.67639
H 14.4114 41.2685 1.40841
O 17.4933 0.586252 4.10619
H 17.9013 1.36724 3.7126
H 16.6558 0.785401 4.55862
O 12.8776 42.6298 6.17661
H 12.9082 42.1172 5.35123
H 13.6563 43.216 6.0906
O 11.8364 4.38688 4.42938
H 11.228 4.23962 5.1489
H 11.2535 4.55427 3.67534
O 11.1222 44.3437 7.1801
H 11.4074 43.7433 6.48237
H 11.2194 43.7796 7.96749
O 18.3715 3.22217 3.08029
H 18.482 3.91024 3.80966
H 17.6077 3.46427 2.62338
O 17.0917 11.3608 3.44034
H 18.0458 11.2317 3.37907
H 16.7313 10.5033 3.17216
O 21.8556 5.50485 3.57307
H 22.0526 5.42355 2.65263
H 21.1266 4.91069 3.76696
O 21.5356 7.61808 5.33643
H 21.5138 8.49493 4.94825
H 21.6166 7.0498 4.58657
O 20.9077 43.6324 9.05142
H 20.4504 42.8275 9.34319
H 21.7804 43.6245 9.43545
O 19.2156 6.464 7.05045
H 19.6526 5.80723 7.68963
H 19.945 6.97174 6.72179
O 16.4947 14.0025 2.31035
H 16.7472 13.0875 2.5817
H 17.0521 14.1418 1.52381
O 23.3532 44.1193 10.2225
H 23.9641 0.298128 9.54485
H 23.9501 -0.484005 10.7972
O 19.9889 4.17787 8.68347
H 20.2189 3.28147 8.44444
H 19.274 4.04517 9.32264
O 18.3113 5.62575 4.7715
H 17.4855 6.16876 4.68074
H 18.6706 5.83486 5.67371
O 17.4996 8.63376 2.48337
H 18.0509 8.3102 1.74818
H 16.9065 7.91438 2.72838
O 14.7435 15.6183 4.21708
H 15.4252 15.1943 3.70237
H 13.8997 15.487 3.82292
O 26.2184 42.3106 7.80947
H 26.5537 42.0021 6.9463
H 26.5711 41.582 8.42258
O 25.8402 0.653676 9.27613
H 26.1907 1.35227 8.7046
H 26.0939 43.96 8.72912
O 23.504 7.2778 7.25613
H 23.5802 8.1401 7.66264
H 22.6104 7.3602 6.83983
O 20.7912 1.92548 7.48546
H 20.3685 1.77309 6.67534
H 20.7496 1.07918 7.96918
O 27.7682 41.064 5.86747
H 27.66 40.7761 4.91393
H 28.6726 40.8624 6.07358
O 22.2239 7.58646 41.6465
H 21.868 7.07908 40.9333
H 22.3667 8.44909 41.3612
O 22.0284 10.1661 40.3974
H 22.2003 10.4082 39.4969
H 21.8564 10.9844 40.8133
O 33.0541 6.16677 3.12071
H 32.3247 5.76417 3.61449
H 33.6594 5.49548 2.8122
O 29.8952 3.70061 6.95257
H 30.5678 3.36786 7.5546
H 29.0636 3.48824 7.37373
O 31.1077 5.64467 5.20716
H 30.6037 5.01842 5.69531
H 30.5543 6.37368 5.01482
O 25.9414 41.5398 0.497354
H 25.3213 40.9768 45.0894
H 25.9577 42.3928 0.00934144
O 31.567 2.69929 9.37728
H 31.7714 1.78702 9.48689
H 32.0797 3.18586 10.0365
O 25.5006 5.44468 6.61816
H 24.7966 5.99408 6.95008
H 26.0956 6.05781 6.23464
O 22.5301 5.11376 0.942453
H 22.9402 4.23086 0.711836
H 22.5302 5.66928 0.16708
O 23.3756 6.46878 43.9219
H 23.9286 7.21109 44.2365
H 22.9667 6.84072 43.1192
O 27.6452 40.596 3.18333
H 26.9083 41.0885 2.8149
H 28.4103 40.6915 2.58917
O 25.4276 -0.0540453 0.763907
H 24.8159 0.710469 45.7915
H 24.8977 -0.820734 0.806301
O 25.9453 20.2456 43.0982
H 26.359 20.613 42.2928
H 26.2714 19.3456 43.0336
O 34.1164 8.56074 2.16661
H 33.5358 7.83918 2.3191
H 34.258 8.90126 3.04643
O 26.8184 3.47244 8.09689
H 26.3843 4.17593 7.55724
H 26.9756 3.79963 8.92278
    
    &END COORD
  &END SUBSYS
  &DFT
    BASIS_SET_FILE_NAME  BASIS_SET
    POTENTIAL_FILE_NAME  GTH_POTENTIALS
    &QS
      EPS_DEFAULT 1.0E-10
    &END QS
    &MGRID
      NGRIDS 4
      CUTOFF 135
      REL_CUTOFF 115
    &END MGRID
    &XC
      &XC_FUNCTIONAL PADE
      &END XC_FUNCTIONAL
    &END XC
    &SCF
      SCF_GUESS ATOMIC
      EPS_SCF 1.0E-7
      MAX_SCF 300
      &DIAGONALIZATION  ON
        ALGORITHM STANDARD
      &END DIAGONALIZATION
      &MIXING  T
        METHOD BROYDEN_MIXING
        ALPHA 0.4
        NBROYDEN 8
      &END MIXING
    &END SCF
  &END DFT
  &PRINT
    &FORCES ON
    &END FORCES
  &END PRINT
&END FORCE_EVAL
