&GLOBAL
  PROJECT H2O_bulk
  RUN_TYPE ENERGY_FORCE
  PRINT_LEVEL LOW
&END GLOBAL
&FORCE_EVAL
  METHOD Quickstep
  &SUBSYS
    &KIND H
      ELEMENT   H
      BASIS_SET DZVP-GTH-PBE
      POTENTIAL GTH-PBE-q1
    &END KIND
    &KIND O
      ELEMENT   O
      BASIS_SET DZVP-GTH-PBE
      POTENTIAL GTH-PBE-q6
    &END KIND
    &CELL
      A     46.937    0.000000000    0.000000000
      B     0.000000000    44.121    0.000000000
      C     0.000000000    0.000000000    45.182
    &END CELL
    &COORD

O 0.484629 1.0678 2.85106
H -0.358635 0.709906 2.81609
H 0.959022 0.539402 3.5019
O 6.4625 4.28815 0.691409
H 6.23264 4.56219 -0.235744
H 5.97575 3.47503 0.772984
O 6.56316 5.72027 3.36107
H 7.46061 5.34353 3.546
H 6.31764 5.49573 2.49892
O 4.89605 5.15546 5.5308
H 5.42874 5.63091 6.13668
H 5.33501 5.27235 4.66236
O 2.36298 -0.428841 4.60511
H 3.14635 0.0507149 4.9484
H 2.54384 42.7139 4.76552
O 1.82444 6.01053 6.07921
H 2.75865 5.80255 5.94338
H 1.34733 5.68063 5.31454
O 5.22274 1.20761 0.0959349
H 4.31313 0.89414 0.279489
H 5.66837 0.533936 -0.497583
O 5.1091 1.81693 5.48741
H 4.96892 2.75896 5.53784
H 5.85762 1.64291 5.98941
O 0.816325 6.51537 8.84663
H 1.05188 6.25294 7.97617
H 0.750447 5.64163 9.28289
O 0.796298 4.93048 3.34718
H 0.897562 5.29246 2.46446
H 0.67733 3.98988 3.17036
O 1.02151 7.29219 -0.251776
H 1.00425 8.21527 -0.562544
H 1.47306 6.89675 -0.968893
O 2.48547 0.372592 0.594586
H 1.97247 0.673106 -0.162643
H 2.06391 0.779427 1.38002
O 6.18497 0.893224 2.85989
H 5.7382 1.03493 2.03988
H 5.59951 1.14419 3.54496
O 6.81589 -0.578302 10.1812
H 6.14194 -0.338983 10.8159
H 6.96781 42.613 10.4391
O 6.73605 6.21029 8.08942
H 7.54186 5.72194 8.16126
H 6.09634 5.73977 8.5884
O 0.615658 0.509208 9.44269
H 0.33659 -0.087983 10.1366
H -0.152626 0.329088 8.73917
O 9.01862 1.67821 3.03093
H 8.06235 1.53784 2.96272
H 9.33681 1.20408 2.25822
O 13.0778 5.00891 0.0565291
H 13.6152 5.44091 -0.609082
H 13.5005 5.30394 0.856095
O 14.1827 6.50986 3.61072
H 14.0441 7.4499 3.68422
H 13.8699 6.1478 4.51563
O 13.1389 5.3988 6.00672
H 13.3386 5.7305 6.94794
H 12.1491 5.58308 5.85044
O 10.4553 0.63766 6.04103
H 9.86755 0.917966 5.37629
H 10.0327 0.80049 6.90531
O 10.1901 5.96016 5.60933
H 9.90091 5.46095 4.73871
H 9.96376 6.915 5.61305
O 12.8332 0.895278 0.394914
H 13.0408 1.77469 0.052319
H 13.2885 0.871035 1.36651
O 13.166 1.27187 5.77805
H 12.1637 1.12847 5.84082
H 13.3102 2.22719 5.81601
O 9.24091 4.89253 8.0893
H 9.35254 3.9519 8.17483
H 9.63588 5.17668 7.23099
O 9.49318 4.53624 3.09157
H 9.3536 3.5496 3.0237
H 9.89725 4.87762 2.24021
O 10.5648 5.67843 0.812446
H 9.94075 5.76236 0.107817
H 11.4219 5.37858 0.358617
O 10.1131 0.445305 0.561249
H 9.84707 43.9533 -0.115349
H 11.0607 0.578545 0.484937
O 14.1902 0.514429 2.75628
H 15.1009 0.818614 2.82166
H 13.7447 0.583735 3.6103
O 13.2686 -0.0498282 8.88877
H 14.1115 0.275007 9.15467
H 13.27 0.19949 7.97171
O 12.6356 6.52158 9.0381
H 12.9932 7.2224 9.62839
H 12.1828 5.94074 9.63815
O 9.40618 1.23118 8.75479
H 10.0049 1.06572 9.51107
H 8.58253 0.943153 9.10096
O 16.901 1.57276 3.40881
H 17.0412 2.52292 3.31968
H 17.4037 1.29833 4.16088
O 20.92 4.59502 0.211476
H 21.3033 4.92655 1.02491
H 20.0583 5.0791 0.176886
O 21.9976 5.82736 3.22627
H 22.9469 5.57136 3.18769
H 21.9834 6.80251 3.38179
O 20.9622 4.72504 5.76774
H 21.3739 4.97904 4.93084
H 20.9531 3.73374 5.77718
O 18.3501 0.525233 5.89437
H 19.2549 0.827408 5.87206
H 18.3772 43.6977 5.86926
O 18.2992 5.66703 5.63349
H 17.9385 5.27924 6.445
H 19.239 5.37809 5.63953
O 20.5207 1.79588 0.126003
H 21.0584 1.52671 0.84707
H 20.5754 2.75407 0.142019
O 20.9065 1.55764 5.83397
H 21.3212 1.30841 6.6141
H 21.3669 1.12853 5.13722
O 17.6971 4.52894 8.37342
H 18.0231 3.56774 8.4181
H 16.8867 4.55004 8.91752
O 17.1033 5.19358 3.02948
H 16.1773 5.47884 3.19888
H 17.598 5.42734 3.83575
O 18.3182 5.95271 0.569923
H 17.8624 6.76514 0.353509
H 17.944 5.67691 1.46343
O 18.7126 -0.559357 -0.399351
H 19.1812 0.270927 -0.261387
H 17.985 -0.407456 0.209279
O 22.42 -0.0319435 3.80328
H 23.2707 0.442627 3.62439
H 22.6324 43.1612 3.76539
O 22.1645 0.550434 8.10898
H 23.0361 1.01311 8.17264
H 22.3786 -0.360681 8.07765
O 22.4708 5.85187 8.25988
H 22.1006 6.31742 8.99529
H 21.7536 5.54766 7.73601
O 18.4018 1.71891 8.90026
H 19.1599 1.39423 9.33118
H 18.3949 1.20833 8.07557
O 24.7644 1.58561 3.36502
H 25.2242 1.27861 2.58309
H 25.2045 1.39725 4.21538
O 29.2341 5.12406 -0.125938
H 29.5237 5.25495 -1.00453
H 29.1246 4.18111 -0.104312
O 30.2203 6.309 2.77579
H 29.9276 5.91739 1.97384
H 30.993 5.78337 2.95307
O 29.0364 5.18222 6.13788
H 29.2224 5.54331 5.27614
H 28.1946 5.60451 6.3579
O 25.8273 0.778851 5.96541
H 26.7461 0.85896 5.84819
H 25.5657 1.08992 6.82156
O 25.8709 6.24353 6.04005
H 25.5261 5.88257 5.13088
H 25.4775 7.08241 6.22481
O 29.2914 0.892577 0.102984
H 29.9693 0.837489 0.831956
H 29.7779 0.483603 -0.579548
O 28.7808 1.3031 5.76294
H 28.9581 2.2589 5.92168
H 29.557 1.00113 5.22278
O 24.828 4.55802 8.2589
H 23.9608 5.01397 8.3353
H 25.259 4.90897 7.4788
O 24.6103 5.05061 3.08297
H 24.5748 4.08542 3.17655
H 25.1657 5.31637 2.34907
O 26.2434 5.73171 0.775336
H 25.9474 6.50905 0.294169
H 27.1998 5.70142 0.593238
O 26.3104 0.720526 0.521978
H 26.1756 43.8926 0.32395
H 27.2589 0.819604 0.581816
O 31.2885 -0.587775 2.59177
H 31.5259 42.6397 2.22497
H 32.1459 -0.227572 2.74193
O 30.7725 -0.137105 9.39145
H 29.9224 0.0875276 9.13308
H 31.1274 0.696134 9.5447
O 30.8501 6.01118 9.12652
H 30.3639 5.7295 8.4131
H 30.4195 6.86035 9.37294
O 24.9516 1.71754 8.39507
H 24.9463 2.89482 8.4252
H 25.4788 1.39887 9.09839
    
    &END COORD
  &END SUBSYS
  &DFT
    BASIS_SET_FILE_NAME  BASIS_SET
    POTENTIAL_FILE_NAME  GTH_POTENTIALS
    &QS
      EPS_DEFAULT 1.0E-10
    &END QS
    &MGRID
      NGRIDS 4
      CUTOFF 135
      REL_CUTOFF 115
    &END MGRID
    &XC
      &XC_FUNCTIONAL PADE
      &END XC_FUNCTIONAL
    &END XC
    &SCF
      SCF_GUESS ATOMIC
      EPS_SCF 1.0E-7
      MAX_SCF 300
      &DIAGONALIZATION  ON
        ALGORITHM STANDARD
      &END DIAGONALIZATION
      &MIXING  T
        METHOD BROYDEN_MIXING
        ALPHA 0.4
        NBROYDEN 8
      &END MIXING
    &END SCF
  &END DFT
  &PRINT
    &FORCES ON
    &END FORCES
  &END PRINT
&END FORCE_EVAL
