&GLOBAL
  PROJECT H2O_bulk
  RUN_TYPE ENERGY_FORCE
  PRINT_LEVEL LOW
&END GLOBAL
&FORCE_EVAL
  METHOD Quickstep
  &SUBSYS
    &KIND H
      ELEMENT   H
      BASIS_SET DZVP-GTH-PBE
      POTENTIAL GTH-PBE-q1
    &END KIND
    &KIND O
      ELEMENT   O
      BASIS_SET DZVP-GTH-PBE
      POTENTIAL GTH-PBE-q6
    &END KIND
    &CELL
      A     46.937    0.000000000    0.000000000
      B     0.000000000    44.121    0.000000000
      C     0.000000000    0.000000000    45.182
    &END CELL
    &COORD

O 3.11061 3.41147 6.79351
H 3.17951 3.72674 7.69622
H 2.76198 4.17681 6.31943
O 4.27127 1.48622 43.4792
H 3.66072 2.08458 42.9266
H 4.66947 0.903146 42.7732
O 5.97429 2.19612 0.836719
H 5.80508 1.55437 1.56819
H 5.4941 1.90612 45.1917
O 5.99994 5.45165 0.725128
H 6.67476 6.1348 0.774517
H 6.57558 4.67543 0.772152
O 2.66431 5.31585 4.60823
H 3.54818 5.44454 4.27729
H 2.24883 6.20068 4.42783
O 3.49264 5.73822 43.4439
H 3.99308 5.47577 44.2064
H 4.00786 6.40974 42.9151
O 2.7614 3.48136 42.2868
H 2.77926 4.40861 42.5821
H 2.01982 3.4633 41.7506
O 5.05512 6.49753 3.31463
H 5.96828 6.69236 3.55959
H 5.15647 6.08575 2.4983
O 7.02458 8.5515 42.9942
H 7.93226 8.72707 42.9588
H 6.98041 7.82933 43.5746
O 4.43295 7.94866 41.9065
H 5.39054 8.2762 41.8661
H 4.02689 8.40707 41.1641
O 4.12416 43.2938 23.7635
H 3.80389 42.4026 23.49
H 3.304 43.6838 23.9704
O 4.3018 1.03618 5.64711
H 4.17271 0.446705 6.35658
H 3.81864 1.75643 6.03809
O 6.08444 0.800489 3.20009
H 6.88683 0.696056 3.73024
H 5.30473 0.895243 3.77706
O 18.1665 42.2868 2.63071
H 18.7919 41.7597 3.15404
H 18.1441 43.18 3.04854
O 7.83041 6.59087 2.96807
H 8.15117 7.33041 3.49072
H 8.32209 5.8132 3.29087
O 2.51905 6.65163 11.9168
H 2.24824 7.33437 11.1885
H 2.64373 5.80086 11.3344
O 11.443 42.078 2.07963
H 12.3395 41.6607 2.00265
H 10.7739 41.5882 2.56447
O 10.7728 44.0265 42.9808
H 10.1362 43.6846 42.3579
H 11.6593 43.9729 42.5728
O 15.4938 6.62302 3.6724
H 15.137 6.99147 4.44611
H 15.0185 5.76553 3.63157
O 14.3527 2.98944 3.6611
H 13.7068 3.57935 4.02802
H 13.9441 2.74441 2.85478
O 9.65232 2.82118 6.28566
H 9.40944 3.14242 7.17407
H 10.173 2.01867 6.50875
O 8.63763 1.8708 1.9204
H 9.2623 1.2544 1.559
H 7.9693 1.98189 1.22277
O 16.0659 41.7897 0.486801
H 16.7263 41.9556 1.14273
H 16.5324 41.6253 44.895
O 15.0385 0.936903 5.57975
H 14.7336 1.54137 4.87487
H 15.1971 1.52025 6.34148
O 9.25735 4.14313 3.30733
H 9.20061 3.65785 4.18095
H 9.01572 3.43888 2.64621
O 12.9283 2.30321 1.15574
H 13.5758 2.30994 0.418332
H 12.2531 1.71621 0.967445
O 10.666 0.419282 0.6556
H 10.6792 0.494262 44.9043
H 10.8058 43.6089 0.734945
O 13.7507 40.9029 1.90477
H 13.7205 39.9631 1.85763
H 14.5217 41.165 1.37014
O 17.5431 0.600828 3.89059
H 17.7043 1.53427 3.77611
H 16.8596 0.568727 4.57008
O 13.1614 42.5404 6.33965
H 12.9575 41.9173 5.61418
H 13.856 43.1867 6.05121
O 11.8923 4.41091 4.43031
H 11.6251 3.81392 5.15991
H 11.0773 4.30375 3.83422
O 11.1963 0.27 7.21857
H 11.8842 43.823 6.82754
H 11.4134 0.26988 8.16818
O 18.3416 3.28492 3.13803
H 18.4218 3.96222 3.80396
H 17.607 3.59279 2.66601
O 16.9657 11.4454 3.59001
H 17.8092 11.168 3.95351
H 16.81 10.645 3.06125
O 21.7545 5.41589 3.53955
H 22.4164 5.31089 2.86084
H 20.9952 5.31445 2.9553
O 21.5133 7.69205 5.38699
H 21.5143 8.57844 4.95305
H 21.5937 7.01423 4.66765
O 20.8749 43.7428 9.00352
H 20.1447 43.2421 9.39394
H 21.5666 43.759 9.6299
O 19.29 6.50784 7.03709
H 19.4012 5.65356 7.49215
H 20.0794 6.84723 6.67607
O 16.5222 13.9642 2.29928
H 16.5402 13.0784 2.73753
H 17.3992 14.1675 1.91921
O 23.2405 44.0356 10.2517
H 23.9903 0.332966 9.82634
H 23.5138 43.7797 11.1303
O 19.9032 4.12931 8.80227
H 20.261 3.3575 8.27562
H 19.324 3.5791 9.35633
O 18.2407 5.52493 4.75113
H 17.4698 5.96352 4.3176
H 18.3938 5.88037 5.61613
O 17.2596 8.66982 2.52782
H 17.595 8.61578 1.60926
H 16.5678 7.98798 2.58691
O 14.7123 15.6097 4.27782
H 15.342 15.1036 3.7478
H 13.9667 15.5337 3.69982
O 26.255 42.3096 7.84026
H 26.8881 41.915 7.21316
H 26.4356 41.7028 8.64001
O 25.702 0.785116 9.18971
H 25.9903 1.68227 8.92793
H 26.1044 0.231072 8.4714
O 23.4543 7.13313 7.34889
H 23.1191 7.66849 8.0556
H 23.1169 7.46349 6.49173
O 20.8697 1.93534 7.4111
H 20.55 1.84167 6.56038
H 20.7694 1.0711 7.86308
O 27.7 41.0876 5.85122
H 27.7291 41.1615 4.8696
H 28.595 41.138 6.15174
O 22.3121 7.69637 41.6815
H 21.7339 7.24287 41.0593
H 22.303 8.62907 41.3361
O 21.9404 10.0088 40.3578
H 21.7445 10.1247 39.4325
H 21.9281 10.9056 40.5839
O 33.1342 6.13961 3.02961
H 32.5803 6.08127 3.83479
H 33.5269 5.26561 2.98174
O 29.8609 3.71532 7.00149
H 30.389 3.30472 7.69426
H 28.9521 3.52698 7.17849
O 31.205 5.63474 5.17353
H 30.7916 4.86918 5.72095
H 30.5992 6.36091 5.20769
O 25.9875 41.4494 0.608166
H 25.4641 40.9216 45.0753
H 26.3251 42.2616 0.130964
O 31.4949 2.69204 9.43921
H 31.6908 1.77361 9.46514
H 32.3119 3.19563 9.57967
O 25.4865 5.48072 6.51805
H 24.7476 5.99456 6.89052
H 26.0301 6.15932 6.14567
O 22.4708 5.02659 0.87253
H 22.8178 4.2998 0.279131
H 22.7117 5.765 0.365474
O 23.3078 6.64087 43.8996
H 23.9995 7.29941 44.0661
H 22.8091 6.96384 43.1227
O 27.5808 40.6117 2.99759
H 26.7504 40.7519 2.5472
H 28.0809 40.8792 2.24342
O 25.6137 44.0217 0.890106
H 24.8119 0.3983 0.557979
H 25.2016 43.291 1.32298
O 25.8342 20.0518 43.3181
H 25.6581 20.7449 42.6227
H 26.6881 19.6966 42.996
O 34.2839 8.52281 2.13858
H 33.9209 7.64685 2.09259
H 34.4591 8.77892 3.04475
O 26.8496 3.58531 8.04969
H 26.2669 3.9025 7.33992
H 26.7335 4.24777 8.66187
    
    &END COORD
  &END SUBSYS
  &DFT
    BASIS_SET_FILE_NAME  BASIS_SET
    POTENTIAL_FILE_NAME  GTH_POTENTIALS
    &QS
      EPS_DEFAULT 1.0E-10
    &END QS
    &MGRID
      NGRIDS 4
      CUTOFF 135
      REL_CUTOFF 115
    &END MGRID
    &XC
      &XC_FUNCTIONAL PADE
      &END XC_FUNCTIONAL
    &END XC
    &SCF
      SCF_GUESS ATOMIC
      EPS_SCF 1.0E-7
      MAX_SCF 300
      &DIAGONALIZATION  ON
        ALGORITHM STANDARD
      &END DIAGONALIZATION
      &MIXING  T
        METHOD BROYDEN_MIXING
        ALPHA 0.4
        NBROYDEN 8
      &END MIXING
    &END SCF
  &END DFT
  &PRINT
    &FORCES ON
    &END FORCES
  &END PRINT
&END FORCE_EVAL
