&GLOBAL
  PROJECT H2O_bulk
  RUN_TYPE ENERGY_FORCE
  PRINT_LEVEL LOW
&END GLOBAL
&FORCE_EVAL
  METHOD Quickstep
  &SUBSYS
    &KIND H
      ELEMENT   H
      BASIS_SET DZVP-GTH-PBE
      POTENTIAL GTH-PBE-q1
    &END KIND
    &KIND O
      ELEMENT   O
      BASIS_SET DZVP-GTH-PBE
      POTENTIAL GTH-PBE-q6
    &END KIND
    &CELL
      A     46.937    0.000000000    0.000000000
      B     0.000000000    44.121    0.000000000
      C     0.000000000    0.000000000    45.182
    &END CELL
    &COORD

O 0.75729 1.33245 3.23205
H -0.0669265 0.872414 3.28998
H 1.44322 0.824134 3.7673
O 6.02275 4.35813 0.95952
H 5.29863 4.76627 0.460642
H 5.8399 3.405 1.02381
O 6.79608 5.6271 3.40267
H 7.65371 5.18007 3.56093
H 6.4011 5.32608 2.5251
O 5.04316 4.92334 5.58447
H 5.57842 5.30524 6.34234
H 5.51142 5.19334 4.75876
O 2.5772 0.0631862 5.0534
H 3.38621 0.511729 5.12324
H 2.76437 43.2248 5.05798
O 2.37842 5.88611 5.98204
H 3.2978 5.56368 5.91081
H 1.8935 5.56991 5.21782
O 5.47878 1.4629 0.490363
H 4.58083 1.14804 0.394501
H 6.08723 0.931443 -0.102997
O 5.12817 1.85583 5.46782
H 5.06875 2.79418 5.45605
H 5.6059 1.63674 6.32305
O 1.04932 5.60445 8.45618
H 1.53386 5.67675 7.60287
H 0.833154 4.67915 8.68366
O 0.988928 4.75454 3.42346
H 1.13763 5.13233 2.56739
H 0.910506 3.80875 3.31871
O 1.91008 6.47986 0.277527
H 1.87373 7.43691 0.182259
H 1.45382 6.18952 -0.498501
O 2.46602 0.636078 0.807984
H 2.12589 -0.252164 0.861393
H 1.82549 1.157 1.31185
O 6.57572 0.843164 3.14848
H 6.1098 1.07357 2.30245
H 6.11346 1.23423 3.88371
O 6.51741 0.0229855 9.0603
H 5.92885 0.286869 9.74496
H 6.14377 43.303 8.80873
O 6.45032 5.71104 7.84727
H 7.24648 5.28546 7.97881
H 6.59654 6.61852 8.12091
O 0.95956 1.15209 8.71858
H 0.472704 0.421119 8.86783
H 1.44499 0.925549 7.97964
O 9.06103 1.69113 3.21711
H 8.06361 1.37233 3.15518
H 9.4726 1.38301 2.3797
O 13.4241 4.81103 0.464116
H 13.9214 5.06601 -0.327298
H 13.8794 5.19535 1.23269
O 14.4202 6.00897 3.35872
H 14.5879 6.93731 3.54993
H 13.991 5.5974 4.22737
O 13.0197 4.87496 5.75306
H 13.2523 5.11593 6.66545
H 12.0995 5.13883 5.56964
O 10.3731 0.666404 5.50538
H 9.85378 0.99709 4.72212
H 9.89163 0.907683 6.32089
O 10.4071 5.91257 5.35504
H 9.93282 5.36663 4.5472
H 10.2523 6.85448 5.19243
O 12.8631 1.16224 0.738357
H 13.1514 2.03113 0.445842
H 13.392 0.959133 1.59878
O 13.1042 1.4662 5.53398
H 12.132 1.18582 5.53661
H 13.145 2.42344 5.49013
O 9.24249 4.9146 8.15835
H 9.44354 4.00796 8.32879
H 9.62786 5.14133 7.3293
O 9.1961 4.48388 3.40835
H 9.13085 3.45235 3.40428
H 9.47948 4.76621 2.47598
O 10.1799 5.69557 0.98196
H 9.78746 5.58641 0.135898
H 11.0991 5.56405 0.8328
O 10.1531 0.746702 0.892696
H 10.1285 43.9157 0.923294
H 11.054 0.950192 0.885144
O 14.3695 0.564299 3.00042
H 15.2823 0.977131 3.06519
H 13.8943 0.747628 3.85179
O 13.7673 0.275395 8.53864
H 14.6425 0.528657 8.81607
H 13.7314 0.54878 7.61081
O 13.4385 6.00841 8.58647
H 13.6572 6.93252 8.72593
H 13.0853 5.74989 9.40907
O 9.39642 1.50829 8.559
H 10.0892 1.00865 9.02807
H 8.57055 1.1283 8.86091
O 16.8034 1.79081 3.46488
H 16.8965 2.76672 3.39353
H 17.2342 1.49025 4.28884
O 20.946 4.75712 0.510101
H 21.4913 5.08957 1.19992
H 20.033 5.09715 0.606757
O 22.1338 5.82031 3.4551
H 23.0189 5.47751 3.40325
H 22.1817 6.79829 3.51236
O 20.9476 4.63721 5.70964
H 21.4756 4.95647 4.97188
H 20.9064 3.67938 5.65052
O 18.3143 0.399972 5.81874
H 19.2672 0.747839 5.71807
H 18.295 43.6132 5.51019
O 18.2914 5.69784 5.44639
H 17.998 5.41636 6.30543
H 19.2069 5.35815 5.42414
O 20.8163 1.64201 0.533566
H 21.3189 1.3564 1.30169
H 20.8304 2.65451 0.467903
O 20.9241 1.72663 5.67886
H 21.365 1.47969 6.47302
H 21.4491 1.38072 4.92116
O 17.532 4.61338 8.16096
H 17.5636 3.64788 8.19113
H 16.7128 4.87238 8.57536
O 16.8827 4.89304 3.19773
H 16.0321 5.35201 3.23918
H 17.3924 5.14989 3.94682
O 18.3399 5.70715 0.720937
H 18.2173 6.65423 0.720067
H 17.7993 5.37676 1.47728
O 18.3226 0.0126507 0.265974
H 19.1158 0.528917 0.312522
H 17.7916 0.29036 1.00572
O 22.3918 0.384283 3.82732
H 23.215 0.877614 3.59838
H 22.6681 43.6415 4.12503
O 22.2195 0.745481 7.95749
H 23.1672 1.09896 8.15143
H 22.2622 -0.230445 8.05598
O 22.1983 5.71017 8.14662
H 22.0785 6.55975 7.70203
H 21.5864 5.12519 7.60884
O 17.7154 1.75788 8.47517
H 18.5654 1.66732 8.89596
H 17.7591 1.17866 7.66539
O 24.8053 1.72931 3.31151
H 25.1571 1.40767 2.46947
H 25.2521 1.424 4.09332
O 29.1283 4.97359 0.421342
H 29.5222 5.35211 -0.359869
H 29.0584 3.94812 0.260312
O 30.2538 5.78142 3.18396
H 29.9223 5.22447 2.42018
H 30.7255 6.52329 2.78037
O 28.6322 4.91767 5.70318
H 29.0139 5.32031 4.90232
H 27.7478 5.31153 5.82353
O 25.7758 0.858679 5.55529
H 26.7553 0.88914 5.67978
H 25.3041 1.18143 6.38316
O 25.9122 5.93269 5.46424
H 25.5723 5.41414 4.63389
H 25.8478 6.84855 5.3313
O 29.0158 1.3699 0.427625
H 29.6018 1.12355 1.16872
H 29.4116 0.980633 -0.321839
O 28.4366 1.49946 5.67737
H 28.5116 2.41643 5.77534
H 28.9694 1.21423 4.94713
O 24.89 4.39715 8.14539
H 23.9642 4.73883 8.26245
H 25.2057 4.80209 7.32365
O 24.8157 4.63377 3.44385
H 24.8161 3.68488 3.54946
H 25.2077 4.86516 2.61559
O 25.8409 5.60814 1.02231
H 25.8224 6.54991 0.872948
H 26.7099 5.34117 0.738019
O 25.8615 0.749701 0.962695
H 25.5576 44.6799 0.0616607
H 26.7999 0.559599 0.953593
O 30.773 -0.00995503 3.07822
H 30.941 43.151 3.24526
H 31.5384 0.385888 3.38057
O 30.4596 0.433525 8.75298
H 30.2202 0.892091 7.94333
H 30.1275 -0.464652 8.53026
O 30.5504 5.70216 8.6944
H 30.0373 5.46168 7.96465
H 30.3315 6.67447 8.74119
O 24.868 1.65452 8.29556
H 24.865 2.78375 8.26293
H 25.2754 1.40276 9.112
    
    &END COORD
  &END SUBSYS
  &DFT
    BASIS_SET_FILE_NAME  BASIS_SET
    POTENTIAL_FILE_NAME  GTH_POTENTIALS
    &QS
      EPS_DEFAULT 1.0E-10
    &END QS
    &MGRID
      NGRIDS 4
      CUTOFF 135
      REL_CUTOFF 115
    &END MGRID
    &XC
      &XC_FUNCTIONAL PADE
      &END XC_FUNCTIONAL
    &END XC
    &SCF
      SCF_GUESS ATOMIC
      EPS_SCF 1.0E-7
      MAX_SCF 300
      &DIAGONALIZATION  ON
        ALGORITHM STANDARD
      &END DIAGONALIZATION
      &MIXING  T
        METHOD BROYDEN_MIXING
        ALPHA 0.4
        NBROYDEN 8
      &END MIXING
    &END SCF
  &END DFT
  &PRINT
    &FORCES ON
    &END FORCES
  &END PRINT
&END FORCE_EVAL
