&GLOBAL
  PROJECT H2O_bulk
  RUN_TYPE ENERGY_FORCE
  PRINT_LEVEL LOW
&END GLOBAL
&FORCE_EVAL
  METHOD Quickstep
  &SUBSYS
    &KIND H
      ELEMENT   H
      BASIS_SET DZVP-GTH-PBE
      POTENTIAL GTH-PBE-q1
    &END KIND
    &KIND O
      ELEMENT   O
      BASIS_SET DZVP-GTH-PBE
      POTENTIAL GTH-PBE-q6
    &END KIND
    &CELL
      A     46.937    0.000000000    0.000000000
      B     0.000000000    44.121    0.000000000
      C     0.000000000    0.000000000    45.182
    &END CELL
    &COORD

O 0.602078 0.861897 2.45232
H 46.6611 0.459699 2.35917
H 0.971658 0.472469 3.30389
O 6.65687 4.23692 0.476808
H 7.02366 4.59003 44.8082
H 6.24536 3.41831 0.282233
O 6.47011 5.62818 3.07651
H 7.39836 5.26374 3.01407
H 6.16577 5.26249 2.27126
O 4.90158 5.16028 5.86906
H 5.26402 5.49872 6.67198
H 5.52869 5.45083 5.12326
O 2.26218 43.5474 4.27971
H 2.89227 -0.183727 4.83226
H 2.09805 42.758 4.686
O 1.51126 6.00826 6.02094
H 2.42555 5.73667 5.92311
H 1.09866 5.6599 5.22948
O 4.92468 1.14369 0.129592
H 3.97836 1.0194 0.266631
H 5.07612 0.462865 44.6534
O 4.82807 1.99561 5.3674
H 4.77393 2.99776 5.47101
H 5.39988 1.75686 6.05958
O 0.674352 7.15058 8.94579
H 0.870092 6.90103 8.03805
H 0.828279 6.36536 9.5274
O 0.672408 5.04711 3.41884
H 0.641644 5.57265 2.61186
H 0.517686 4.12825 3.14997
O 0.367531 7.80611 44.5684
H 0.209083 8.77093 44.481
H 1.23479 7.73428 44.2142
O 2.35537 0.337633 0.373482
H 1.62324 0.653521 45.0244
H 1.9733 0.501406 1.23712
O 6.22517 0.952945 2.65041
H 5.74198 1.01936 1.7775
H 5.67841 1.28226 3.4039
O 7.31644 43.2488 10.9207
H 6.5148 43.5664 11.3439
H 7.48248 42.3935 11.3694
O 6.61057 6.32054 8.06716
H 7.48984 5.79345 8.06013
H 6.65655 6.78664 8.88057
O 0.285012 -0.0182738 9.97951
H 0.491458 43.9606 10.8778
H 46.2343 0.164634 10.0337
O 8.97281 1.69382 2.95157
H 7.94121 1.5726 2.89023
H 9.42607 1.20734 2.21969
O 13.1431 5.0893 45.0458
H 13.5147 5.5625 44.3082
H 13.3713 5.57493 0.640503
O 14.2372 6.61545 3.7066
H 14.2577 7.55452 3.76596
H 13.9574 6.33492 4.53877
O 13.0159 5.9489 6.28478
H 13.0457 6.27915 7.19333
H 12.1073 5.86403 6.1123
O 10.4043 0.750252 6.2915
H 9.95478 0.810516 5.45081
H 9.73453 0.959747 6.98133
O 10.1523 5.64546 5.56294
H 9.95602 5.14509 4.65757
H 9.65479 6.45294 5.37908
O 12.873 0.726579 0.247182
H 13.1348 1.57777 45.0541
H 13.255 0.68181 1.19736
O 13.2478 1.05065 5.95868
H 12.324 0.979194 6.07497
H 13.4531 1.95818 6.15553
O 9.26313 4.79724 8.11844
H 9.2085 3.85244 8.26184
H 9.65274 4.89992 7.20456
O 9.52022 4.57564 3.206
H 9.3344 3.56801 3.07339
H 9.96923 4.88239 2.32528
O 10.4977 5.68115 0.74205
H 9.8549 6.02253 0.173399
H 11.2329 5.37921 0.210383
O 10.0978 0.384743 0.538983
H 9.87889 43.6887 45.2657
H 11.0999 0.522991 0.395632
O 14.1365 0.646085 2.81359
H 15.11 0.908882 2.96107
H 13.7957 0.716625 3.7145
O 12.8105 44.0017 8.89836
H 13.5528 -0.34066 9.44256
H 13.2013 0.0893421 8.05194
O 12.1573 6.79377 9.14542
H 12.2235 6.98397 10.1081
H 11.215 6.76809 9.00461
O 9.28006 0.997639 8.79564
H 10.1617 0.692117 9.0689
H 8.64145 0.484112 9.2449
O 16.7975 1.38552 3.3994
H 17.0692 2.26273 3.05948
H 17.2557 1.32473 4.29232
O 20.6591 4.48302 0.198256
H 21.0957 4.694 1.02648
H 19.8885 5.0275 0.28211
O 21.8696 5.6701 2.96219
H 22.7806 5.60444 2.91998
H 21.6842 6.55213 2.68141
O 21.1212 4.71007 5.83585
H 21.3033 4.89644 4.93472
H 21.1246 3.70216 5.92651
O 18.3918 0.881847 6.01193
H 19.329 1.00387 5.87673
H 18.2652 44.0544 5.99067
O 18.1586 5.52283 5.8361
H 17.7574 5.05432 6.62398
H 19.0936 5.39447 5.78701
O 20.2732 1.75956 44.9875
H 20.9144 1.52109 0.459995
H 20.359 2.74427 45.0734
O 21.1087 1.28672 5.75003
H 21.598 0.964793 6.54153
H 21.5436 0.793164 5.03559
O 17.8694 4.41704 8.361
H 18.0855 3.54491 8.54577
H 17.2902 4.67629 9.07644
O 17.1017 5.44938 3.09729
H 16.1928 5.7395 3.27891
H 17.6393 5.46524 3.89164
O 18.3513 5.98001 0.605252
H 18.1589 6.84999 0.294114
H 17.8993 5.89815 1.40989
O 19.1357 43.4127 44.3203
H 19.4189 0.228349 44.4237
H 18.3539 43.2601 -0.312963
O 22.2797 44.1251 3.81464
H 23.1006 0.508566 3.68854
H 22.5682 43.2762 4.12149
O 22.2223 0.54174 8.23139
H 23.0474 1.00546 8.33741
H 22.3851 43.8248 8.58428
O 22.5216 5.93827 8.28962
H 21.7398 5.61487 8.7562
H 22.2069 5.95683 7.3626
O 18.8478 1.70992 8.96758
H 19.7854 1.62168 8.90143
H 18.5052 1.2724 8.14253
O 24.8874 1.57758 3.40641
H 25.4014 1.20943 2.6774
H 25.5077 1.24176 4.20448
O 29.1191 5.16407 44.8422
H 29.627 5.83687 44.2174
H 29.5121 4.29874 44.6953
O 30.1513 6.48831 2.60915
H 29.8222 6.26041 1.75919
H 31.0906 6.64319 2.50978
O 29.4098 5.4235 6.48178
H 29.6471 5.89444 5.6945
H 28.4443 5.39169 6.46699
O 26.0491 0.745424 5.83383
H 26.9412 1.02696 5.91434
H 25.6516 1.10779 6.72091
O 25.8988 6.22991 6.35252
H 25.5366 6.15834 5.49888
H 25.911 7.17639 6.49043
O 29.5559 0.552878 0.0320322
H 29.8079 0.0490336 0.811296
H 29.7932 0.0373822 44.4849
O 29.0273 1.32161 5.8897
H 29.4739 2.16387 6.08337
H 29.5048 0.957407 5.12461
O 24.9084 4.46938 8.36543
H 24.0479 4.87752 8.33713
H 25.4423 4.8719 7.68906
O 24.7153 5.19229 2.91263
H 24.8156 4.22782 3.04807
H 25.2987 5.31071 2.18356
O 26.5413 5.8689 0.637785
H 26.2106 6.11061 -0.223344
H 27.4363 5.55315 0.455063
O 26.6706 0.705853 0.605825
H 26.3075 44.4311 -0.201342
H 27.5857 0.552501 0.488476
O 31.5846 43.2469 2.00373
H 31.2927 42.5118 2.51021
H 32.5067 43.2838 2.22366
O 31.0472 43.6921 9.90356
H 30.9371 42.8817 9.40541
H 30.2884 -0.480284 10.4561
O 30.9661 6.18984 9.25427
H 30.8319 5.78281 8.39808
H 30.1463 6.79912 9.25228
O 24.7081 2.01128 8.43365
H 24.7081 2.92155 8.36572
H 25.2592 1.84995 9.18516
    
    &END COORD
  &END SUBSYS
  &DFT
    BASIS_SET_FILE_NAME  BASIS_SET
    POTENTIAL_FILE_NAME  GTH_POTENTIALS
    &QS
      EPS_DEFAULT 1.0E-10
    &END QS
    &MGRID
      NGRIDS 4
      CUTOFF 135
      REL_CUTOFF 115
    &END MGRID
    &XC
      &XC_FUNCTIONAL PADE
      &END XC_FUNCTIONAL
    &END XC
    &SCF
      SCF_GUESS ATOMIC
      EPS_SCF 1.0E-7
      MAX_SCF 300
      &DIAGONALIZATION  ON
        ALGORITHM STANDARD
      &END DIAGONALIZATION
      &MIXING  T
        METHOD BROYDEN_MIXING
        ALPHA 0.4
        NBROYDEN 8
      &END MIXING
    &END SCF
  &END DFT
  &PRINT
    &FORCES ON
    &END FORCES
  &END PRINT
&END FORCE_EVAL
