&GLOBAL
  PROJECT H2O_bulk
  RUN_TYPE ENERGY_FORCE
  PRINT_LEVEL LOW
&END GLOBAL
&FORCE_EVAL
  METHOD Quickstep
  &SUBSYS
    &KIND H
      ELEMENT   H
      BASIS_SET DZVP-GTH-PBE
      POTENTIAL GTH-PBE-q1
    &END KIND
    &KIND O
      ELEMENT   O
      BASIS_SET DZVP-GTH-PBE
      POTENTIAL GTH-PBE-q6
    &END KIND
    &CELL
      A     46.937    0.000000000    0.000000000
      B     0.000000000    44.121    0.000000000
      C     0.000000000    0.000000000    45.182
    &END CELL
    &COORD

O 3.17843 2.8795 6.31737
H 2.48294 3.40833 6.0773
H 3.84043 3.51545 6.59156
O 5.12419 1.18022 44.0738
H 5.34236 1.6304 43.2339
H 4.36044 0.741512 43.702
O 5.76668 2.14862 1.39758
H 5.25575 1.59114 1.95933
H 5.57986 1.79846 0.50272
O 5.33358 4.89408 1.49067
H 5.35543 3.88888 1.64192
H 4.64841 4.90624 0.798951
O 5.08472 5.04508 7.06137
H 5.35741 5.43015 6.23345
H 5.8465 5.02077 7.66688
O 4.89331 3.95495 38.792
H 4.19071 4.57668 38.6606
H 5.57394 4.3034 38.2069
O 4.29385 2.26006 41.5017
H 4.54692 2.53907 40.6742
H 3.61527 2.90143 41.7869
O 5.6071 6.27117 3.97438
H 6.52989 6.37635 3.92602
H 5.37327 5.71315 3.26359
O 8.54296 7.11754 38.1982
H 9.02057 7.50262 37.4265
H 9.11481 7.3792 38.9378
O 6.31474 5.52965 37.0604
H 6.80259 6.02226 37.743
H 7.04578 5.26726 36.5325
O 37.8666 9.66437 17.6464
H 37.1866 10.0255 18.1911
H 38.4118 10.4546 17.4791
O 3.37173 0.0731362 5.61319
H 3.64874 1.03815 5.68705
H 3.22765 -0.273981 6.51646
O 3.75379 44.0931 2.59211
H 3.88646 43.3478 1.97712
H 3.6486 43.6632 3.4503
O 17.643 41.4347 42.8315
H 17.3722 41.2483 41.9155
H 17.3386 42.3418 42.9897
O 8.59676 6.28013 4.26214
H 9.12765 7.07468 4.30154
H 9.08246 5.56831 4.71566
O 6.95437 42.6668 28.8651
H 7.37249 42.6864 29.6556
H 6.62092 43.4885 28.8324
O 11.9501 42.9756 0.00397128
H 11.8329 42.2456 44.5707
H 12.7804 42.633 0.403941
O 10.8049 3.05538 43.1893
H 11.1815 2.99083 42.2927
H 9.9587 3.43325 42.9716
O 14.0758 6.83299 4.27894
H 13.4145 6.14141 4.58108
H 13.9025 6.99147 3.33069
O 14.3613 3.78745 3.14435
H 13.5846 3.96974 3.72878
H 14.0246 3.42073 2.27086
O 13.8918 3.27109 7.10547
H 13.6319 2.96304 7.94502
H 14.8556 3.44238 7.15055
O 8.87456 2.00679 2.47983
H 9.27891 1.51454 1.73277
H 8.05148 2.27792 2.16948
O 16.057 39.5821 44.4203
H 16.589 40.2297 43.8823
H 16.5735 39.3414 0.0326974
O 17.15 2.95674 3.70019
H 16.2282 3.06674 3.49166
H 17.265 3.8778 3.9241
O 10.1461 2.69111 5.11783
H 9.67848 2.06076 5.68037
H 9.80499 2.50333 4.22074
O 12.3102 3.32672 0.970404
H 12.1165 3.66973 0.115183
H 11.6008 2.65699 1.15451
O 10.4848 1.06587 0.301926
H 10.2023 1.59566 44.7489
H 10.9181 0.261413 -0.00350888
O 13.6125 40.7731 0.111452
H 13.1651 39.9826 0.450013
H 14.3967 40.4231 44.8804
O 17.0191 0.108424 43.2728
H 17.4953 0.699654 43.8596
H 16.5573 0.712542 42.6916
O 18.0833 2.25449 6.19506
H 17.8818 1.32504 6.36816
H 17.7305 2.30832 5.3071
O 12.3631 4.73972 5.5068
H 12.8584 4.28941 6.18663
H 11.5326 4.29169 5.3075
O 16.4041 4.29575 7.16315
H 17.1082 3.6273 7.03343
H 16.4776 4.88384 6.4274
O 18.7033 1.61203 44.6949
H 19.6454 1.58153 44.4862
H 18.66 2.27302 0.235548
O 11.4863 11.928 4.71577
H 12.0122 11.1221 4.76627
H 10.7227 11.7336 5.35002
O 20.0236 7.9162 2.74586
H 19.4813 8.53807 2.24473
H 19.482 7.09588 2.74393
O 21.0219 8.83723 5.21052
H 21.3015 9.78554 5.16429
H 20.8938 8.53031 4.2714
O 22.0322 1.25104 9.04676
H 22.8752 0.824842 9.01016
H 21.5087 0.756582 9.61333
O 18.983 7.1045 6.11089
H 19.4188 6.67521 6.8962
H 19.4321 7.9278 5.89554
O 13.0535 14.1539 4.68123
H 12.6227 13.4893 5.22546
H 12.9093 13.7387 3.82448
O 24.2943 -0.0661052 9.8068
H 25.0224 -0.0549903 9.15972
H 24.2602 43.1505 10.0742
O 20.484 5.73922 8.58013
H 20.492 4.79823 8.48478
H 19.9782 5.97937 9.37122
O 16.7443 5.81409 4.75193
H 15.8549 6.16993 4.61501
H 17.267 6.42819 5.27181
O 13.3189 9.66638 4.96822
H 14.2042 9.86561 4.63391
H 13.2079 8.67302 4.9484
O 15.3093 13.7594 6.5439
H 15.4062 14.6693 6.83222
H 14.628 13.8408 5.89129
O 28.6816 42.1892 8.42059
H 29.5524 42.3701 8.1482
H 28.5442 41.3307 7.9342
O 26.5521 44.0968 8.04334
H 26.1035 43.772 7.2473
H 27.4243 43.5781 8.02575
O 22.4703 6.64852 6.62868
H 21.8756 6.23745 7.23734
H 22.1014 7.51128 6.42642
O 21.0326 3.28398 7.38478
H 20.4422 2.70166 6.84128
H 21.5905 2.58589 7.77584
O 27.8435 39.8343 7.00301
H 27.6296 39.7384 6.0358
H 27.1678 39.379 7.50352
O 21.5758 8.59999 41.0242
H 21.6999 9.46272 40.5594
H 20.851 8.1681 40.4622
O 19.6579 7.19339 39.3891
H 18.7023 7.07003 39.5192
H 19.7796 6.36081 38.9497
O 33.4592 3.22406 4.30874
H 32.9667 3.95969 4.7703
H 32.9359 2.74695 3.67447
O 30.341 5.40547 7.28321
H 30.7029 4.82878 7.99283
H 29.4379 5.03164 7.15063
O 32.6405 5.5591 5.56824
H 31.8389 5.64189 6.15496
H 32.9923 6.40757 5.35456
O 28.2727 42.5626 2.67231
H 28.4171 42.3439 1.81046
H 28.8236 43.4618 2.81378
O 32.6932 3.98039 8.52458
H 33.351 3.84801 7.83225
H 33.117 3.55425 9.24676
O 25.4185 5.75014 6.19239
H 24.4811 5.95381 6.38583
H 25.3447 4.88331 5.749
O 18.426 8.99753 0.309639
H 19.1478 8.76222 44.8346
H 18.1904 9.85893 45.2049
O 20.7675 9.14034 43.7395
H 21.6279 8.92303 44.1422
H 20.9588 9.0175 42.8084
O 27.7635 39.9764 4.14425
H 27.6941 40.6909 3.56461
H 27.1433 39.3333 3.84472
O 28.9126 42.2776 44.7388
H 28.1705 42.1866 44.1492
H 29.7105 41.9806 44.2703
O 21.1835 13.8417 7.13975
H 20.8268 13.3159 7.91951
H 20.4572 14.4801 6.96274
O 36.2295 1.98632 4.66366
H 35.383 2.44293 4.73358
H 36.0449 1.27258 5.17426
O 27.7614 4.35849 7.47592
H 27.0041 4.95202 7.39142
H 27.5258 3.9684 8.30884
    
    &END COORD
  &END SUBSYS
  &DFT
    BASIS_SET_FILE_NAME  BASIS_SET
    POTENTIAL_FILE_NAME  GTH_POTENTIALS
    &QS
      EPS_DEFAULT 1.0E-10
    &END QS
    &MGRID
      NGRIDS 4
      CUTOFF 135
      REL_CUTOFF 115
    &END MGRID
    &XC
      &XC_FUNCTIONAL PADE
      &END XC_FUNCTIONAL
    &END XC
    &SCF
      SCF_GUESS ATOMIC
      EPS_SCF 1.0E-7
      MAX_SCF 300
      &DIAGONALIZATION  ON
        ALGORITHM STANDARD
      &END DIAGONALIZATION
      &MIXING  T
        METHOD BROYDEN_MIXING
        ALPHA 0.4
        NBROYDEN 8
      &END MIXING
    &END SCF
  &END DFT
  &PRINT
    &FORCES ON
    &END FORCES
  &END PRINT
&END FORCE_EVAL
