&GLOBAL
  PROJECT H2O_bulk
  RUN_TYPE ENERGY_FORCE
  PRINT_LEVEL LOW
&END GLOBAL
&FORCE_EVAL
  METHOD Quickstep
  &SUBSYS
    &KIND H
      ELEMENT   H
      BASIS_SET DZVP-GTH-PBE
      POTENTIAL GTH-PBE-q1
    &END KIND
    &KIND O
      ELEMENT   O
      BASIS_SET DZVP-GTH-PBE
      POTENTIAL GTH-PBE-q6
    &END KIND
    &CELL
      A     46.937    0.000000000    0.000000000
      B     0.000000000    44.121    0.000000000
      C     0.000000000    0.000000000    45.182
    &END CELL
    &COORD

O 0.90357 43.6224 0.766611
H 1.04485 42.6499 0.653745
H 1.32371 43.8886 1.58402
O 5.41679 4.28392 0.097486
H 4.74395 4.43707 44.6779
H 5.54039 3.33032 0.100712
O 6.25284 5.34167 2.75496
H 7.07615 4.84964 2.84416
H 5.89712 5.10015 1.92434
O 4.51755 4.5868 4.74048
H 4.96397 4.74695 5.6273
H 5.13693 4.92842 4.00394
O 1.69672 0.829356 3.37964
H 2.12786 1.61457 3.51682
H 1.77647 0.414254 4.23467
O 1.66482 6.64586 6.62877
H 2.49729 6.3697 6.22853
H 0.986993 6.31974 6.02726
O 4.92311 1.17027 45.0646
H 3.99175 1.20333 44.8284
H 5.29297 0.491413 44.4433
O 3.79042 2.05765 5.03443
H 4.09825 2.94578 4.84245
H 4.19726 2.01696 5.86189
O 0.577863 9.36166 6.61083
H 1.03503 8.47198 6.52921
H 0.382729 9.45945 7.55872
O 46.3606 6.1464 4.65362
H 45.6404 5.60661 4.98131
H 46.5866 5.77969 3.7958
O 43.4851 11.0861 42.6361
H 43.5782 10.1634 42.8581
H 42.6404 11.2639 43.0751
O 2.19379 1.35153 44.1874
H 1.49513 1.97864 43.9916
H 1.73413 0.65047 44.6172
O 5.72945 0.872859 2.83755
H 5.47324 0.870227 1.94546
H 4.96731 1.16005 3.44177
O 10.9424 43.1442 12.6161
H 11.8766 43.1172 12.4754
H 10.6652 43.1517 11.6918
O 5.72541 4.55534 7.18327
H 6.67974 4.39801 7.26203
H 5.57112 5.20791 7.90875
O 45.2755 41.1419 13.7268
H 44.5297 41.3846 14.2302
H 44.8404 40.5634 13.0507
O 8.35608 1.25609 3.58316
H 7.41756 1.01007 3.4141
H 8.99244 0.84777 3.00676
O 12.3751 6.03946 44.3446
H 12.9378 5.71258 43.6744
H 12.843 6.75759 44.7011
O 14.5216 8.25473 6.01093
H 14.5416 9.16118 6.29773
H 13.5837 8.05821 5.90375
O 11.6486 7.89116 5.80368
H 11.2877 8.09534 6.72892
H 11.2562 7.07203 5.6122
O 9.25851 1.84447 6.21149
H 8.82868 1.54342 5.41044
H 9.04875 1.17244 6.86052
O 9.41069 5.84499 5.3896
H 9.5153 4.98282 4.86789
H 8.56215 6.09832 4.98375
O 12.9954 43.6175 2.26123
H 13.6035 43.5243 1.52843
H 13.5026 -0.0415585 2.99619
O 12.179 1.04342 6.38744
H 11.273 1.07798 6.08282
H 12.3397 1.88293 6.7976
O 8.55939 4.44218 7.62072
H 8.85024 3.64631 7.16248
H 8.83124 5.08586 6.98253
O 9.01149 3.90819 3.38849
H 8.95948 2.82776 3.41137
H 9.57434 4.16564 2.71674
O 10.1775 5.02889 0.959983
H 9.61598 5.34579 0.271069
H 11.056 5.02302 0.583627
O 10.334 0.0446348 1.95835
H 10.2964 0.461285 1.10684
H 11.2631 -0.177962 2.1551
O 14.4155 0.470177 4.30251
H 15.2255 0.976639 4.46671
H 13.866 0.640019 5.03254
O 11.5903 42.6494 9.028
H 11.6111 41.7065 8.81795
H 12.3216 43.0548 8.56563
O 9.8303 7.49149 8.55537
H 10.3263 7.41313 9.37092
H 9.38442 6.6172 8.5429
O 9.19154 -0.194761 8.54279
H 10.0213 43.5466 8.77308
H 8.48718 43.29 8.7535
O 16.7818 1.86639 5.06521
H 16.9774 2.68513 5.49567
H 17.5748 1.38068 5.23976
O 19.7441 3.38903 0.885578
H 20.5452 3.87025 1.14017
H 18.9819 3.8362 1.34338
O 22.4034 4.78398 2.26069
H 23.3202 4.40553 2.30414
H 22.6204 5.72992 2.21581
O 21.2341 3.84457 4.88618
H 21.4284 4.16161 4.06156
H 21.3609 2.86728 4.8946
O 19.2718 0.243853 5.79521
H 20.0989 0.425647 5.39915
H 19.1645 43.4196 5.79286
O 18.4995 4.997 5.91552
H 18.6997 5.00563 6.83777
H 19.33 4.83824 5.44297
O 20.1465 2.1137 43.2159
H 20.6694 2.91268 43.2329
H 19.7267 2.23953 44.1019
O 21.8984 1.10112 4.94949
H 22.3844 1.05159 5.75572
H 22.479 0.997838 4.22423
O 19.4299 4.71044 8.82785
H 19.4039 3.73343 8.69463
H 18.6789 4.96012 9.38792
O 16.6838 6.83521 4.27803
H 15.8976 7.12577 4.77587
H 17.1349 6.26873 5.0163
O 17.6483 5.23229 1.97816
H 16.9889 5.57872 1.38999
H 17.3435 5.61406 2.78914
O 20.7619 43.6929 41.8759
H 20.5616 0.364835 42.3289
H 21.5522 43.7877 41.3774
O 23.7246 0.892668 3.07991
H 24.7198 1.03876 3.25475
H 23.639 0.6789 2.14447
O 22.8671 0.93691 7.77714
H 23.6259 1.45824 7.9367
H 22.8831 0.17074 8.26454
O 22.4702 5.6095 6.90613
H 21.776 5.44164 7.55109
H 22.2505 5.06037 6.15685
O 19.3718 1.96632 8.33172
H 20.2678 1.65093 8.49863
H 19.1526 1.52852 7.54974
O 26.3307 1.61426 3.57246
H 27.0343 1.36385 2.96736
H 26.6526 1.66277 4.50695
O 29.0198 6.2678 44.6242
H 28.9432 6.80144 43.8453
H 29.5424 5.46307 44.2702
O 30.085 7.59546 2.5864
H 29.6995 7.33979 1.73775
H 30.7821 8.23487 2.27483
O 29.8096 7.14501 7.42399
H 29.4571 8.01102 7.29897
H 29.06 6.577 7.16354
O 27.0207 1.63593 6.08623
H 27.9457 1.46983 6.41622
H 26.4031 1.71183 6.87622
O 27.1957 5.92557 6.24202
H 27.465 5.16963 5.73874
H 26.7564 6.56791 5.58872
O 30.0116 42.3744 45.2718
H 30.7408 42.4841 -0.495439
H 29.6914 41.4609 45.1496
O 29.8152 1.58459 7.00828
H 30.3234 2.38922 7.00633
H 30.4648 0.976463 7.35488
O 25.1118 4.97547 8.302
H 24.2114 5.15633 7.98427
H 25.7 5.40674 7.70045
O 25.2628 4.27867 2.66461
H 25.6708 3.47613 2.97295
H 25.8735 4.76783 2.04149
O 26.5037 5.9139 0.565767
H 25.8988 5.59724 45.1059
H 27.3784 5.9308 0.134382
O 28.2341 0.545899 1.07359
H 28.7065 1.35364 0.783274
H 28.8 43.8997 1.0225
O 32.8073 41.3128 44.06
H 33.4348 41.701 43.4247
H 32.9086 40.4196 43.9332
O 32.7242 40.9906 13.371
H 31.9555 40.9207 14.0204
H 33.1988 41.7514 13.7841
O 31.685 6.95505 9.43116
H 30.973 6.81557 8.80296
H 31.4873 7.85607 9.79478
O 25.223 2.23002 8.48473
H 25.3738 3.11592 8.42013
H 25.311 2.03203 9.37343
    
    &END COORD
  &END SUBSYS
  &DFT
    BASIS_SET_FILE_NAME  BASIS_SET
    POTENTIAL_FILE_NAME  GTH_POTENTIALS
    &QS
      EPS_DEFAULT 1.0E-10
    &END QS
    &MGRID
      NGRIDS 4
      CUTOFF 135
      REL_CUTOFF 115
    &END MGRID
    &XC
      &XC_FUNCTIONAL PADE
      &END XC_FUNCTIONAL
    &END XC
    &SCF
      SCF_GUESS ATOMIC
      EPS_SCF 1.0E-7
      MAX_SCF 300
      &DIAGONALIZATION  ON
        ALGORITHM STANDARD
      &END DIAGONALIZATION
      &MIXING  T
        METHOD BROYDEN_MIXING
        ALPHA 0.4
        NBROYDEN 8
      &END MIXING
    &END SCF
  &END DFT
  &PRINT
    &FORCES ON
    &END FORCES
  &END PRINT
&END FORCE_EVAL
