&GLOBAL
  PROJECT H2O_bulk
  RUN_TYPE ENERGY_FORCE
  PRINT_LEVEL LOW
&END GLOBAL
&FORCE_EVAL
  METHOD Quickstep
  &SUBSYS
    &KIND H
      ELEMENT   H
      BASIS_SET DZVP-GTH-PBE
      POTENTIAL GTH-PBE-q1
    &END KIND
    &KIND O
      ELEMENT   O
      BASIS_SET DZVP-GTH-PBE
      POTENTIAL GTH-PBE-q6
    &END KIND
    &CELL
      A     46.937    0.000000000    0.000000000
      B     0.000000000    44.121    0.000000000
      C     0.000000000    0.000000000    45.182
    &END CELL
    &COORD

O 0.511668 0.98692 2.65724
H 46.7323 0.371577 2.57324
H 1.01782 0.694292 3.45813
O 6.56871 4.28596 0.588418
H 6.74757 4.42255 44.7975
H 6.18001 3.4204 0.632128
O 6.50703 5.67492 3.21372
H 7.47298 5.42786 3.19035
H 6.25252 5.43599 2.3466
O 4.88634 5.17049 5.70047
H 5.45747 5.50385 6.32062
H 5.4055 5.44808 4.89583
O 2.29269 43.589 4.43916
H 2.98723 -0.000735321 4.80335
H 2.45427 42.6995 4.74858
O 1.64706 6.00307 6.0373
H 2.58599 5.8337 5.91895
H 1.27504 5.79872 5.17493
O 4.99388 1.14525 0.0873897
H 4.03593 0.843824 0.051011
H 5.55115 0.532409 44.7197
O 4.98038 1.89223 5.4563
H 4.82096 2.81902 5.57066
H 5.71673 1.73431 5.93928
O 0.741003 6.83553 8.92242
H 0.989648 6.59103 8.04167
H 0.767986 6.03739 9.49866
O 0.735245 4.99188 3.37784
H 0.809111 5.39373 2.50622
H 0.648738 4.04163 3.21149
O 0.688396 7.55163 44.7481
H 0.64964 8.5048 44.526
H 1.4126 7.30705 44.2063
O 2.50306 0.380159 0.477957
H 1.77839 0.636284 45.082
H 2.03676 0.292762 1.33898
O 6.17926 0.904222 2.74749
H 5.7427 0.986813 1.93801
H 5.66276 1.32054 3.4069
O 7.04152 43.3807 10.5597
H 6.32652 43.647 11.146
H 7.23658 42.5036 10.9583
O 6.67469 6.29275 8.08894
H 7.51036 5.87948 8.07534
H 6.3677 6.16898 8.95154
O 0.462666 0.249884 9.705
H 0.369971 43.9682 10.5691
H 46.3797 0.228137 9.38588
O 8.99984 1.68854 2.99826
H 8.12057 1.43487 2.9312
H 9.41551 1.29312 2.23505
O 13.0291 5.0642 45.1619
H 13.3135 5.59251 44.4332
H 13.3507 5.46893 0.753453
O 14.1793 6.5796 3.67023
H 14.1655 7.52555 3.65986
H 13.7927 6.31788 4.53657
O 13.0867 5.65988 6.14124
H 13.2354 6.10296 7.02719
H 12.1166 5.63821 6.02623
O 10.4184 0.681209 6.19921
H 9.88513 0.931412 5.46502
H 9.90989 0.834812 7.03873
O 10.1546 5.81663 5.62879
H 10.0147 5.40115 4.82128
H 9.87622 6.7279 5.44538
O 12.8415 0.81822 0.317453
H 13.0676 1.61658 45.0475
H 13.3398 0.781304 1.04646
O 13.2259 1.1708 5.85943
H 12.2483 1.0705 5.92759
H 13.4387 2.07576 6.09361
O 9.27567 4.83656 8.07433
H 9.23157 3.89631 8.22471
H 9.56818 5.0032 7.15003
O 9.52538 4.54881 3.14478
H 9.40141 3.63513 3.06607
H 9.86749 4.82314 2.35636
O 10.6398 5.67627 0.720397
H 9.97379 5.92659 0.12278
H 11.3595 5.26226 0.246335
O 10.0997 0.395876 0.527127
H 9.88364 43.85 45.0515
H 11.088 0.492789 0.400569
O 14.1609 0.565001 2.77133
H 15.0737 0.861647 3.04531
H 13.6931 0.75378 3.59713
O 13.0532 44.0176 8.91714
H 13.9002 0.0144533 9.31356
H 13.2458 0.187932 8.03267
O 12.4046 6.66938 9.11441
H 12.67 7.16575 9.92667
H 11.5559 6.3026 9.3645
O 9.3387 1.14024 8.76733
H 10.1256 0.716143 9.17164
H 8.60444 0.669051 9.11014
O 16.8623 1.47504 3.38252
H 17.0349 2.41413 3.17648
H 17.2667 1.3042 4.27523
O 20.8169 4.50056 0.18364
H 21.3427 4.71246 0.959008
H 19.9637 4.98865 0.231896
O 21.9624 5.76173 3.09906
H 22.9769 5.56299 2.98212
H 21.8014 6.70818 2.87489
O 21.0031 4.71793 5.8272
H 21.3333 5.14431 5.02265
H 21.0193 3.70535 5.6327
O 18.3781 0.693261 5.96768
H 19.3272 1.01964 5.75771
H 18.3574 43.883 5.73693
O 18.2433 5.60145 5.76282
H 17.8926 5.27193 6.64874
H 19.1632 5.29987 5.89881
O 20.4003 1.82802 45.1517
H 20.9081 1.46887 0.678429
H 20.4265 2.84602 45.1354
O 21 1.39843 5.7928
H 21.4189 1.10051 6.68172
H 21.435 0.918746 5.03415
O 17.7833 4.48721 8.35084
H 18.0464 3.55736 8.63466
H 17.0455 4.76001 8.92019
O 17.1456 5.30177 2.99787
H 16.2576 5.72177 3.15164
H 17.4685 5.41518 3.94339
O 18.3024 5.98431 0.594778
H 17.9727 6.77823 0.185182
H 17.8798 5.89824 1.49163
O 18.917 43.4622 44.5511
H 19.3189 0.235169 44.6767
H 18.1706 43.4979 -0.0143476
O 22.3183 44.0834 3.83231
H 23.1423 0.382027 3.53806
H 22.5461 43.1758 3.998
O 22.1893 0.530185 8.15799
H 23.1142 0.922386 8.37833
H 22.2343 43.7257 8.30554
O 22.5406 5.91514 8.28418
H 21.9448 5.70874 9.01029
H 22.0865 5.53825 7.50018
O 18.627 1.68351 8.96839
H 19.5566 1.68186 9.11851
H 18.5234 1.22803 8.08033
O 24.8275 1.5905 3.37299
H 25.4572 1.31516 2.72073
H 25.1814 1.37896 4.22747
O 29.1856 5.1525 44.9464
H 29.5824 5.51104 44.0738
H 29.0544 4.20734 44.8136
O 30.1846 6.41265 2.685
H 29.8904 6.08754 1.85931
H 31.0857 6.11951 2.76189
O 29.2289 5.30208 6.2914
H 29.2595 5.88797 5.54778
H 28.2869 5.21289 6.47744
O 25.9331 0.752872 5.92255
H 26.87 0.703158 6.00058
H 25.6142 1.17734 6.82825
O 25.8877 6.24426 6.19652
H 25.5954 6.17986 5.27148
H 25.5179 6.9887 6.62507
O 29.4084 0.727384 0.0740348
H 30.1691 0.582524 0.676138
H 29.6079 0.205346 44.5192
O 28.9129 1.3087 5.82287
H 29.2015 2.20429 6.11616
H 29.5716 0.997822 5.15088
O 24.8464 4.53167 8.31107
H 23.9726 5.02848 8.48203
H 25.1978 5.07432 7.60015
O 24.6006 5.14163 3.00453
H 24.7186 4.17409 3.03849
H 25.1533 5.4328 2.32063
O 26.4315 5.78784 0.691648
H 26.0244 6.33516 0.0203119
H 27.3567 5.68955 0.403623
O 26.5059 0.704707 0.535982
H 26.1907 44.0552 0.031269
H 27.404 0.829258 0.274168
O 31.4449 43.387 2.31823
H 31.4411 42.4195 2.34241
H 32.3614 43.5568 2.44574
O 30.9344 43.8318 9.63323
H 30.1781 43.4492 9.25143
H 30.5147 0.342078 10.1596
O 30.916 6.10328 9.21763
H 30.6816 5.77914 8.36485
H 30.2663 6.8651 9.28699
O 24.8592 1.86294 8.41649
H 24.7432 2.87485 8.33267
H 25.2585 1.81998 9.26694
    
    &END COORD
  &END SUBSYS
  &DFT
    BASIS_SET_FILE_NAME  BASIS_SET
    POTENTIAL_FILE_NAME  GTH_POTENTIALS
    &QS
      EPS_DEFAULT 1.0E-10
    &END QS
    &MGRID
      NGRIDS 4
      CUTOFF 135
      REL_CUTOFF 115
    &END MGRID
    &XC
      &XC_FUNCTIONAL PADE
      &END XC_FUNCTIONAL
    &END XC
    &SCF
      SCF_GUESS ATOMIC
      EPS_SCF 1.0E-7
      MAX_SCF 300
      &DIAGONALIZATION  ON
        ALGORITHM STANDARD
      &END DIAGONALIZATION
      &MIXING  T
        METHOD BROYDEN_MIXING
        ALPHA 0.4
        NBROYDEN 8
      &END MIXING
    &END SCF
  &END DFT
  &PRINT
    &FORCES ON
    &END FORCES
  &END PRINT
&END FORCE_EVAL
