&GLOBAL
  PROJECT H2O_bulk
  RUN_TYPE ENERGY_FORCE
  PRINT_LEVEL LOW
&END GLOBAL
&FORCE_EVAL
  METHOD Quickstep
  &SUBSYS
    &KIND H
      ELEMENT   H
      BASIS_SET DZVP-GTH-PBE
      POTENTIAL GTH-PBE-q1
    &END KIND
    &KIND O
      ELEMENT   O
      BASIS_SET DZVP-GTH-PBE
      POTENTIAL GTH-PBE-q6
    &END KIND
    &CELL
      A     46.937    0.000000000    0.000000000
      B     0.000000000    44.121    0.000000000
      C     0.000000000    0.000000000    45.182
    &END CELL
    &COORD

O 0.443445 0.242972 1.47244
H 46.4089 0.499714 1.45455
H 0.694182 0.103319 2.38967
O 6.25769 3.87651 45.1733
H 6.33915 4.53787 44.488
H 5.5516 3.29673 -0.318648
O 6.39186 5.0111 3.08488
H 7.36571 4.85476 3.12687
H 6.20349 4.59127 2.17727
O 4.62395 4.91744 5.21822
H 5.08529 5.1231 5.96938
H 5.24293 5.00538 4.48317
O 2.28559 43.8315 3.83605
H 2.69217 0.355309 4.32059
H 2.1402 43.1097 4.41171
O 1.29324 6.14028 6.61879
H 2.2354 5.98666 6.43118
H 0.829702 5.96813 5.77713
O 4.69124 1.41681 0.217277
H 3.79924 1.19675 45.0967
H 5.26257 0.825871 44.9216
O 4.17785 2.31199 4.96201
H 4.2706 3.25049 4.88939
H 4.36685 1.98419 5.87276
O 0.420746 8.66836 7.87166
H 0.803485 7.91096 7.40005
H 0.486256 8.45121 8.80642
O 0.153493 5.58839 4.03675
H 46.3253 5.97514 3.61554
H 0.581177 5.14156 3.29441
O 45.2859 9.52395 43.4977
H 44.4752 9.3733 43.9826
H 45.5001 10.3905 43.806
O 2.11947 0.628833 44.3565
H 1.51861 0.940024 43.6639
H 1.52113 0.402947 45.0785
O 6.12846 1.4401 3.01855
H 5.57 1.67268 2.19695
H 5.51816 1.62822 3.73966
O 9.41024 42.9934 12.2962
H 8.90908 42.9867 13.1119
H 10.2315 42.583 12.5957
O 6.31795 5.70943 7.40366
H 7.18564 5.33998 7.72029
H 5.77188 5.86076 8.18026
O 46.1092 42.4486 12.037
H 45.8346 42.8307 11.1883
H 46.6349 43.1072 12.3502
O 8.76815 1.61019 3.33568
H 7.73381 1.59229 3.22172
H 9.21707 1.1362 2.67521
O 12.8362 5.52738 44.7464
H 13.0306 5.52932 43.833
H 13.4592 6.12319 -0.0578565
O 14.4537 7.19433 4.82764
H 14.3384 7.99638 4.31112
H 13.6718 7.24067 5.4636
O 12.0545 7.45891 6.35751
H 11.7969 7.3482 7.2414
H 11.4337 6.84718 5.87532
O 9.86251 1.34762 6.07632
H 9.39166 1.30204 5.22332
H 9.37849 0.915516 6.76969
O 10.0105 5.29318 5.74723
H 10.3269 4.78174 4.97005
H 9.1717 5.59284 5.35247
O 13.2217 0.0352675 1.0746
H 13.6269 0.745824 0.563016
H 13.5297 0.103039 2.06092
O 12.559 0.519125 5.95472
H 11.5509 0.646688 5.86866
H 12.8313 1.33646 6.39078
O 9.15121 4.69063 8.22093
H 9.27022 3.77656 8.50361
H 9.53996 4.80014 7.28178
O 9.15616 4.32861 3.11943
H 9.08929 3.36678 3.07278
H 9.6364 4.61653 2.33314
O 10.3801 5.36324 0.928755
H 9.63896 5.64632 0.439891
H 11.1692 5.35418 0.377089
O 10.2607 0.336292 0.996014
H 10.0164 43.6714 0.528517
H 11.2269 0.256148 0.979814
O 14.1437 0.844368 3.54035
H 15.0386 0.970903 3.77176
H 13.6292 0.681632 4.33244
O 12.0835 43.4134 8.8858
H 12.8103 42.9525 9.31869
H 12.4928 43.6117 8.02153
O 10.7224 7.26037 8.64544
H 10.1207 7.97768 8.8053
H 10.1703 6.44347 8.68897
O 8.72276 0.313835 8.89037
H 9.55653 44.2398 9.3428
H 8.07496 44.1751 9.54919
O 16.804 1.54363 3.95992
H 16.8399 2.48992 3.87787
H 17.3793 1.28625 4.66547
O 19.8507 3.87923 0.672158
H 20.4744 4.04346 1.40187
H 19.236 4.65843 0.828911
O 22.2041 4.89004 2.76987
H 23.2216 4.75355 2.60135
H 22.0968 5.81935 2.47814
O 21.3293 4.23702 5.2486
H 21.581 4.63513 4.43636
H 21.4195 3.27768 5.12583
O 18.7792 0.772377 5.95837
H 19.6523 1.00689 5.69374
H 18.7779 -0.170843 6.02579
O 18.8131 5.0435 5.82424
H 18.6315 4.89302 6.77311
H 19.7351 4.72586 5.59941
O 20.3691 1.68899 44.0423
H 20.1414 2.41237 43.5122
H 20.2629 1.99287 44.9119
O 21.3447 1.61342 5.33146
H 21.7275 1.42139 6.17211
H 21.9578 1.1347 4.6565
O 18.369 4.54121 8.52686
H 18.8337 3.65291 8.70649
H 17.5135 4.45821 8.99448
O 16.9822 6.10958 4.00594
H 16.1896 6.51867 4.4424
H 17.5222 5.75396 4.7447
O 17.8758 6.03694 1.36755
H 18.2374 6.92783 1.3971
H 17.5031 6.03128 2.30642
O 20.1113 43.078 42.7057
H 20.0435 43.9495 43.1356
H 19.7653 43.3209 41.835
O 23.1185 0.669298 3.43065
H 24.0439 1.11302 3.31646
H 22.7704 0.408931 2.57449
O 22.3286 0.953397 8.35823
H 23.2331 1.33352 8.35555
H 22.6153 0.00199946 8.48936
O 22.3951 5.74637 7.46421
H 21.6045 5.69671 8.0289
H 22.1852 5.2055 6.64382
O 19.4482 1.98332 8.76694
H 20.3479 1.82736 8.85611
H 19.2063 1.57957 7.91529
O 25.552 1.69716 3.17101
H 26.1202 1.31022 2.48076
H 25.8935 1.65567 4.14633
O 29.3239 5.64249 44.8553
H 29.6059 6.23092 44.2211
H 29.73 4.81612 44.651
O 30.08 6.93572 2.2428
H 29.9383 6.59118 1.38847
H 29.1755 7.16688 2.4821
O 29.9497 6.30032 6.88355
H 30.2761 6.08353 6.01717
H 29.0075 6.05014 6.83251
O 26.5614 1.23394 5.69152
H 27.4824 1.31751 5.91004
H 26.0675 1.54088 6.47244
O 26.6228 6.2389 6.23038
H 26.1357 5.77092 5.4661
H 26.5052 7.14835 6.16124
O 29.543 43.48 45.1018
H 30.3267 43.2526 0.397001
H 29.908 43.7112 44.2385
O 29.4636 1.56983 6.43372
H 29.8433 2.4189 6.12631
H 30.1773 0.940831 6.44215
O 24.656 4.60365 8.77038
H 23.9171 5.0681 8.27588
H 25.4582 5.10595 8.77231
O 25.1705 4.36758 2.74765
H 25.4015 3.44355 2.78012
H 25.6987 4.73955 2.02537
O 26.2937 6.13037 0.6108
H 26.0261 7.00975 0.362815
H 27.1063 5.97898 0.0910496
O 27.5618 0.795639 1.22067
H 27.6835 0.0575397 0.588227
H 28.4504 1.07135 1.32092
O 32.6191 42.1318 0.286288
H 32.8694 41.8988 1.13925
H 32.8678 41.3306 44.9792
O 31.9713 42.2411 11.8197
H 31.5374 41.6313 11.2579
H 31.3631 42.9251 11.8606
O 31.4676 6.65835 9.62823
H 31.2962 6.39991 8.75209
H 30.6956 7.25766 9.7954
O 24.9356 1.89075 8.28385
H 24.7584 2.78125 8.52706
H 25.482 1.55721 9.01753
    
    &END COORD
  &END SUBSYS
  &DFT
    BASIS_SET_FILE_NAME  BASIS_SET
    POTENTIAL_FILE_NAME  GTH_POTENTIALS
    &QS
      EPS_DEFAULT 1.0E-10
    &END QS
    &MGRID
      NGRIDS 4
      CUTOFF 135
      REL_CUTOFF 115
    &END MGRID
    &XC
      &XC_FUNCTIONAL PADE
      &END XC_FUNCTIONAL
    &END XC
    &SCF
      SCF_GUESS ATOMIC
      EPS_SCF 1.0E-7
      MAX_SCF 300
      &DIAGONALIZATION  ON
        ALGORITHM STANDARD
      &END DIAGONALIZATION
      &MIXING  T
        METHOD BROYDEN_MIXING
        ALPHA 0.4
        NBROYDEN 8
      &END MIXING
    &END SCF
  &END DFT
  &PRINT
    &FORCES ON
    &END FORCES
  &END PRINT
&END FORCE_EVAL
