&GLOBAL
  PROJECT H2O_bulk
  RUN_TYPE ENERGY_FORCE
  PRINT_LEVEL LOW
&END GLOBAL
&FORCE_EVAL
  METHOD Quickstep
  &SUBSYS
    &KIND H
      ELEMENT   H
      BASIS_SET DZVP-GTH-PBE
      POTENTIAL GTH-PBE-q1
    &END KIND
    &KIND O
      ELEMENT   O
      BASIS_SET DZVP-GTH-PBE
      POTENTIAL GTH-PBE-q6
    &END KIND
    &CELL
      A     46.937    0.000000000    0.000000000
      B     0.000000000    44.121    0.000000000
      C     0.000000000    0.000000000    45.182
    &END CELL
    &COORD

O 1.14211 0.326095 45.251
H 0.684439 0.390232 44.3631
H 0.528934 0.922773 0.550011
O 5.29391 4.45104 44.4697
H 5.07531 5.26569 44.0617
H 5.56097 3.85618 43.7487
O 4.97847 3.35012 2.14412
H 5.17599 2.3616 2.06765
H 4.96531 3.80758 1.29852
O 3.31535 4.66142 4.11769
H 3.94993 4.56245 4.89726
H 3.7359 4.23764 3.35364
O 46.5662 1.70354 2.02775
H -0.00903534 2.25969 2.77462
H 45.6124 1.75453 2.11733
O 3.27926 7.83024 4.56915
H 3.20141 6.88656 4.76222
H 2.66816 8.29026 5.10386
O 5.8705 2.20483 42.7435
H 5.89033 1.27451 43.05
H 6.44947 2.19054 41.9345
O 0.661285 3.10399 4.35673
H 1.5394 3.39682 4.24279
H 47.2467 3.97477 4.542
O 2.29544 8.48033 2.14044
H 2.77839 8.24853 2.96543
H 1.64632 7.77157 2.04827
O 1.37638 9.8564 6.06469
H 47.8606 9.77767 6.92446
H 1.89825 10.6668 6.11631
O 32.5997 19.881 37.5331
H 33.3118 20.4692 37.2863
H 32.8664 19.1188 37.0442
O 3.79162 43.6389 0.241483
H 3.7751 43.009 -0.451113
H 2.88592 -0.205998 0.374255
O 5.8236 0.975967 1.3064
H 6.3911 1.33894 0.574307
H 5.13822 0.38362 0.993922
O 13.3003 43.1148 8.74252
H 13.3763 42.2724 9.18958
H 14.1402 43.2752 8.26974
O 4.55642 4.40541 6.76066
H 4.9456 3.57097 7.09503
H 5.34522 4.93582 7.02641
O 40.7411 32.6875 23.9551
H 40.0638 33.4448 24.1052
H 41.1385 32.6007 24.8713
O 9.6861 0.776849 2.78343
H 9.15216 0.403628 2.08027
H 10.3345 0.0915626 2.91577
O 9.447 6.28472 43.5311
H 9.22106 5.73541 42.7804
H 9.40382 7.16001 43.1821
O 14.7732 4.47635 5.90193
H 14.9053 5.29647 6.29462
H 13.8426 4.52804 5.61848
O 11.9808 4.23892 5.26658
H 11.3417 4.96945 5.49382
H 11.4434 3.75648 4.69443
O 9.81403 2.58527 7.08626
H 9.72213 1.86432 6.4549
H 9.6878 2.19808 7.99665
O 7.19328 4.09155 4.0367
H 7.98803 3.65112 3.68941
H 6.49208 3.82074 3.4406
O 13.4576 42.8809 5.69796
H 13.072 42.9633 6.57653
H 14.3916 43.0266 5.866
O 13.478 2.5855 7.7939
H 12.701 2.73824 7.21675
H 14.0601 3.28698 7.42802
O 7.64893 4.68138 6.66247
H 8.28354 3.9654 6.78999
H 7.29615 4.33309 5.75126
O 9.87763 3.43997 3.44403
H 9.96751 2.45946 3.18961
H 9.93467 4.0019 2.61181
O 10.0405 5.51977 1.426
H 10.9277 5.74062 1.59889
H 9.6519 5.82474 45.7595
O 12.1845 43.5407 3.40668
H 12.8799 43.0982 2.88985
H 12.5737 43.484 4.28777
O 15.2394 0.169817 7.39924
H 16.1968 0.35552 7.25857
H 14.8529 1.06082 7.33563
O 11.8474 1.32951 10.5093
H 12.1898 0.516919 10.0758
H 12.4338 2.00057 10.1869
O 10.0607 6.0027 6.09639
H 10.2153 6.07204 7.02926
H 9.13422 5.67807 6.06786
O 9.03021 1.96368 9.65179
H 9.76974 1.5511 10.0824
H 8.31072 1.33486 9.69439
O 17.9473 0.818638 6.84226
H 18.2082 1.61639 6.40206
H 18.6125 0.197296 6.75814
O 20.2398 4.8948 -0.12316
H 20.8125 4.89599 0.634529
H 19.3524 4.89017 0.289555
O 21.9853 4.72701 2.06951
H 22.8524 4.48732 1.66938
H 22.1195 5.55558 2.50098
O 21.8195 2.70002 4.98318
H 22.089 3.05606 4.08549
H 22.3847 1.91561 5.13909
O 21.0519 43.5427 6.79986
H 21.7551 43.938 6.25657
H 21.0101 42.6497 6.44378
O 19.1764 3.28595 5.54101
H 19.4276 3.6651 6.43579
H 19.9731 2.91491 5.1383
O 20.0413 6.5429 42.4579
H 19.1335 6.74968 42.746
H 20.316 6.01241 43.2281
O 23.3112 0.474268 5.58368
H 23.8519 0.65444 6.37773
H 23.8962 44.1161 4.84095
O 20.5089 3.63102 8.38937
H 20.7156 2.73893 8.67216
H 20.3044 4.19114 9.15418
O 17.3526 4.49275 3.95938
H 16.484 4.46609 4.35296
H 17.9372 3.91824 4.56886
O 17.9715 5.57867 1.54649
H 17.1304 5.43156 1.11821
H 17.772 5.38392 2.47392
O 21.0558 8.07134 40.0327
H 21.023 7.30157 40.5854
H 21.5948 8.73423 40.4406
O 25.0183 43.5245 3.59436
H 25.9026 43.8523 3.78676
H 25.1496 43.2026 2.7042
O 24.9165 0.506631 7.79545
H 25.3839 1.164 8.33674
H 24.6703 -0.235357 8.33861
O 22.8381 4.64148 6.82085
H 22.0534 4.42448 7.34474
H 22.7422 4.09163 6.0622
O 21.1019 1.10194 9.21498
H 20.2536 0.728891 9.52434
H 21.4178 0.593805 8.50174
O 27.4552 0.800777 3.81501
H 28.2658 0.420685 3.36753
H 27.8616 1.28843 4.54272
O 27.7459 8.36818 1.14296
H 28.6113 8.39783 1.68488
H 28.0554 8.64232 0.289914
O 28.3655 9.35631 43.7425
H 28.735 8.92336 43.0271
H 28.6152 10.2383 43.6418
O 30.1032 7.26985 7.43036
H 30.8285 7.32758 6.80707
H 29.466 6.7039 7.02073
O 28.4892 2.4218 6.2215
H 29.4409 2.38694 6.21237
H 28.2604 2.07102 7.07604
O 28.0263 5.23709 5.90377
H 28.227 4.38827 6.27835
H 27.9088 5.23606 5.00915
O 29.7679 41.6761 0.24847
H 29.1851 40.9105 0.0126689
H 30.523 41.4942 -0.251238
O 31.4355 2.34944 6.22192
H 32.0028 2.75967 5.57291
H 31.8541 1.50142 6.368
O 25.4761 5.06466 8.35765
H 24.5672 5.09159 8.02864
H 26.0014 5.4431 7.65579
O 24.0759 4.13676 0.328502
H 23.4488 4.08295 -0.373344
H 24.6475 4.88667 0.222831
O 25.6926 6.48516 45.4586
H 25.7519 7.26937 44.8629
H 26.2863 6.81171 46.0846
O 29.4959 43.9239 2.25717
H 30.2817 0.182371 1.89371
H 29.4691 43.0868 1.91071
O 26.6389 40.3758 44.5235
H 25.8312 40.0905 45.0346
H 26.2806 41.1543 44.1
O 36.4706 33.8974 23.1643
H 35.9652 34.5583 22.7223
H 37.172 33.7512 22.5831
O 29.6418 9.96754 8.97653
H 29.9129 9.04576 8.58054
H 28.7098 9.87326 8.99906
O 26.5149 2.56757 8.90576
H 26.0379 3.39266 8.72711
H 26.9703 2.99704 9.68411
    
    &END COORD
  &END SUBSYS
  &DFT
    BASIS_SET_FILE_NAME  BASIS_SET
    POTENTIAL_FILE_NAME  GTH_POTENTIALS
    &QS
      EPS_DEFAULT 1.0E-10
    &END QS
    &MGRID
      NGRIDS 4
      CUTOFF 135
      REL_CUTOFF 115
    &END MGRID
    &XC
      &XC_FUNCTIONAL PADE
      &END XC_FUNCTIONAL
    &END XC
    &SCF
      SCF_GUESS ATOMIC
      EPS_SCF 1.0E-7
      MAX_SCF 300
      &DIAGONALIZATION  ON
        ALGORITHM STANDARD
      &END DIAGONALIZATION
      &MIXING  T
        METHOD BROYDEN_MIXING
        ALPHA 0.4
        NBROYDEN 8
      &END MIXING
    &END SCF
  &END DFT
  &PRINT
    &FORCES ON
    &END FORCES
  &END PRINT
&END FORCE_EVAL
