&GLOBAL
  PROJECT H2O_bulk
  RUN_TYPE ENERGY_FORCE
  PRINT_LEVEL LOW
&END GLOBAL
&FORCE_EVAL
  METHOD Quickstep
  &SUBSYS
    &KIND H
      ELEMENT   H
      BASIS_SET DZVP-GTH-PBE
      POTENTIAL GTH-PBE-q1
    &END KIND
    &KIND O
      ELEMENT   O
      BASIS_SET DZVP-GTH-PBE
      POTENTIAL GTH-PBE-q6
    &END KIND
    &CELL
      A     46.937    0.000000000    0.000000000
      B     0.000000000    44.121    0.000000000
      C     0.000000000    0.000000000    45.182
    &END CELL
    &COORD

O 0.322865 0.507595 1.84802
H 46.4854 0.139169 2.35209
H 1.04994 0.0677371 2.2726
O 6.49855 3.9322 -0.053295
H 5.89718 4.18849 44.4083
H 6.25725 3.03685 0.193498
O 6.38589 5.10882 3.22233
H 7.3129 4.86283 3.38832
H 6.21427 4.9804 2.25524
O 4.84494 4.93727 5.50405
H 5.33368 5.19993 6.33602
H 5.37932 5.10595 4.72732
O 2.30707 43.5702 3.98167
H 2.84182 0.239046 4.22517
H 2.24318 43.1302 4.81533
O 1.27657 6.14503 6.59886
H 2.19514 5.97399 6.37732
H 0.818121 5.96191 5.78041
O 4.78275 1.40164 0.288192
H 3.83249 1.59904 0.131812
H 4.90731 0.598307 45.0537
O 4.30107 2.33279 4.79907
H 4.44549 3.2182 5.1403
H 4.58465 1.84195 5.62581
O 0.474074 8.29961 8.24965
H 0.804296 7.56075 7.78075
H 0.6443 8.06791 9.15569
O 0.290389 5.40963 3.66144
H -0.493305 5.69037 3.21143
H 0.416255 4.5157 3.34974
O -1.09525 9.03614 43.7875
H -1.92684 9.33133 44.1824
H -0.53879 9.78551 43.9291
O 2.14063 0.423792 -0.693066
H 1.87318 0.640633 43.5992
H 1.39539 0.481688 -0.133777
O 6.1093 1.39075 2.99518
H 5.54069 1.29872 2.19581
H 5.54186 1.74729 3.67844
O 8.86432 43.0245 12.0664
H 8.09451 42.8855 12.5906
H 9.46295 42.3317 12.3288
O 6.4945 5.94223 7.66934
H 7.4002 5.61024 7.89028
H 6.48409 6.80627 8.06185
O -0.549997 -1.24174 11.4734
H -0.0832344 43.3799 10.6534
H 46.385 -0.556179 12.1385
O 8.96834 1.67042 2.96956
H 8.05069 1.48078 2.89581
H 9.35982 1.19271 2.16471
O 13.1204 5.38947 44.78
H 13.3404 5.33626 43.8693
H 13.9219 5.7283 -0.0347001
O 14.4237 6.92871 4.51521
H 13.8693 7.44507 3.95074
H 13.9268 6.85345 5.30141
O 12.5255 7.192 6.29371
H 12.4365 7.32622 7.22923
H 11.8082 6.50001 6.09199
O 10.1211 1.20762 6.11343
H 9.63516 1.12441 5.24733
H 9.52305 0.822525 6.77113
O 10.1154 5.1599 5.62118
H 9.99018 4.57248 4.85334
H 9.77233 6.02692 5.43667
O 12.9862 0.276927 0.773736
H 13.452 0.646562 45.2023
H 13.5268 0.588835 1.53407
O 12.8405 0.479901 6.26497
H 11.9101 0.728264 6.1228
H 13.2355 1.27143 6.64156
O 9.18946 4.92279 8.30497
H 9.37406 4.12366 8.81638
H 9.38501 4.65947 7.42454
O 9.03473 4.38829 3.15664
H 9.05508 3.38407 3.04908
H 9.54654 4.82364 2.37481
O 10.2993 5.55979 0.87062
H 9.97649 5.49676 -0.0220734
H 11.2817 5.55599 0.696814
O 10.3359 0.406448 0.884125
H 10.154 43.5991 45.9708
H 11.323 0.526999 0.818805
O 14.0732 0.857041 3.214
H 15.0561 1.0456 3.40559
H 13.6717 0.544324 4.02274
O 11.9573 43.8013 8.68177
H 12.5293 -0.87523 9.20363
H 12.3632 -0.188705 7.8175
O 10.9174 7.0424 8.81985
H 10.4224 7.53378 9.47431
H 10.3581 6.26529 8.61669
O 9.02181 0.371306 9.02719
H 9.93082 0.0578324 9.14424
H 8.54301 -0.0231461 9.75292
O 16.7304 1.4105 3.81521
H 17.2414 1.95549 3.21618
H 17.3154 1.42131 4.62414
O 19.9646 4.1695 0.564936
H 20.768 4.36116 1.04863
H 19.3236 4.84292 0.666526
O 22.2177 5.04171 2.6426
H 23.1716 4.80048 2.56682
H 22.1583 5.96389 2.79392
O 21.3575 4.38989 5.47651
H 21.6775 4.66484 4.56942
H 21.3971 3.43297 5.44107
O 18.579 1.04295 6.05397
H 19.508 1.18074 5.68534
H 18.3982 44.2229 5.98899
O 18.4782 5.12587 5.8549
H 18.3465 4.86388 6.78416
H 19.4007 4.82161 5.7561
O 20.283 1.56614 44.2831
H 20.7894 2.24048 -1.30751
H 19.8554 2.0736 44.9552
O 21.2968 1.45221 5.47889
H 21.7252 1.15519 6.26221
H 21.8542 1.09475 4.6787
O 18.2812 4.33917 8.4811
H 18.8409 3.50094 8.58623
H 17.3933 4.05588 8.76939
O 16.9202 5.98513 3.75315
H 16.0643 6.38654 3.97263
H 17.3489 5.66459 4.56842
O 18.0806 6.05849 1.1206
H 18.0727 6.89642 0.684719
H 17.7049 6.10277 1.96683
O 19.8927 43.1354 43.1421
H 20.0287 -0.116656 43.5355
H 19.2475 43.1707 -2.75391
O 22.7853 44.5952 3.63065
H 23.7167 0.836937 3.37067
H 22.4089 44.2944 2.803
O 22.0894 0.83619 8.4375
H 22.9326 1.09991 8.34133
H 22.0627 44.235 9.07795
O 22.4202 5.86555 7.82453
H 21.6828 6.39191 8.13968
H 22.0252 5.39715 7.09099
O 19.4993 1.92958 8.75899
H 20.4831 1.82034 8.6952
H 19.1856 1.45801 7.9531
O 25.4893 1.43178 3.05317
H 26.2055 1.04649 2.50238
H 25.7334 1.35077 3.94909
O 29.3141 5.44022 44.7154
H 29.835 5.89764 44.0753
H 29.69 4.47375 44.6204
O 30.1228 6.8268 2.36061
H 29.9633 6.31012 1.56656
H 29.2704 7.2729 2.53804
O 29.9982 6.00214 6.85379
H 30.2364 6.65617 6.204
H 29.0232 5.96973 6.80196
O 26.5099 1.08112 5.59745
H 27.4429 1.37402 5.80379
H 25.9906 1.25609 6.31731
O 26.3864 6.30279 6.29079
H 26.1198 5.85686 5.48026
H 26.255 7.17285 5.99578
O 29.5454 -0.269266 -0.043477
H 30.3486 -0.785954 0.0973572
H 29.7185 0.098964 44.2718
O 29.3167 1.5086 6.23261
H 29.9837 2.19107 6.39004
H 29.8606 0.766381 6.04507
O 24.7218 4.62023 8.8299
H 23.8681 5.00095 8.78097
H 25.135 5.16501 8.16177
O 24.8848 4.80697 2.8132
H 25.1442 3.89428 2.77981
H 25.3981 5.37786 2.12162
O 26.36 6.1297 0.576463
H 26.075 6.88956 0.0702814
H 27.2741 5.9411 0.275776
O 27.3229 0.797788 1.2799
H 26.8966 44.9465 0.388793
H 28.1268 0.305701 1.09391
O 32.3297 42.4185 0.780836
H 32.8139 42.208 1.5324
H 32.9455 42.1475 0.0434115
O 31.674 42.5656 11.2506
H 30.9143 42.9429 11.7451
H 32.2015 -0.764708 11.1096
O 31.2725 6.5268 9.46781
H 30.8688 6.33389 8.66311
H 30.7095 7.22202 9.8534
O 24.8314 1.84709 8.28426
H 24.8492 2.81949 8.33127
H 25.5008 1.58087 8.96609
    
    &END COORD
  &END SUBSYS
  &DFT
    BASIS_SET_FILE_NAME  BASIS_SET
    POTENTIAL_FILE_NAME  GTH_POTENTIALS
    &QS
      EPS_DEFAULT 1.0E-10
    &END QS
    &MGRID
      NGRIDS 4
      CUTOFF 135
      REL_CUTOFF 115
    &END MGRID
    &XC
      &XC_FUNCTIONAL PADE
      &END XC_FUNCTIONAL
    &END XC
    &SCF
      SCF_GUESS ATOMIC
      EPS_SCF 1.0E-7
      MAX_SCF 300
      &DIAGONALIZATION  ON
        ALGORITHM STANDARD
      &END DIAGONALIZATION
      &MIXING  T
        METHOD BROYDEN_MIXING
        ALPHA 0.4
        NBROYDEN 8
      &END MIXING
    &END SCF
  &END DFT
  &PRINT
    &FORCES ON
    &END FORCES
  &END PRINT
&END FORCE_EVAL
