&GLOBAL
  PROJECT H2O_bulk
  RUN_TYPE ENERGY_FORCE
  PRINT_LEVEL LOW
&END GLOBAL
&FORCE_EVAL
  METHOD Quickstep
  &SUBSYS
    &KIND H
      ELEMENT   H
      BASIS_SET DZVP-GTH-PBE
      POTENTIAL GTH-PBE-q1
    &END KIND
    &KIND O
      ELEMENT   O
      BASIS_SET DZVP-GTH-PBE
      POTENTIAL GTH-PBE-q6
    &END KIND
    &CELL
      A     46.937    0.000000000    0.000000000
      B     0.000000000    44.121    0.000000000
      C     0.000000000    0.000000000    45.182
    &END CELL
    &COORD

O 0.34854 43.6544 0.653538
H 46.8705 42.9777 1.24828
H 0.154297 0.405678 1.03644
O 5.51185 4.42925 44.3764
H 4.81675 4.91897 44.002
H 5.7062 3.75621 43.6923
O 5.11752 3.16987 1.80821
H 5.11995 2.21879 1.62624
H 5.28499 3.51122 0.923567
O 3.66594 4.83126 4.16966
H 4.16478 4.55822 4.91395
H 4.10784 4.51 3.41567
O 46.8318 2.06422 1.96488
H 0.513365 2.05934 2.76944
H 46.5847 2.98598 1.63327
O 3.14204 8.03597 3.64464
H 3.4086 7.10987 3.74857
H 2.90755 8.38197 4.46519
O 5.86381 2.51067 42.1252
H 5.69832 1.51656 42.1398
H 6.05332 2.67485 41.2015
O 1.25923 3.43892 4.16801
H 2.0875 3.89477 4.14026
H 1.05681 3.52966 5.06312
O 1.92494 8.7185 1.12438
H 2.40975 8.47759 1.91325
H 2.35602 9.51264 0.797464
O 3.08869 9.8185 6.11598
H 4.00063 9.78724 6.45204
H 2.91589 10.7525 5.90498
O 30.2746 21.7653 36.354
H 29.4275 22.2563 36.4132
H 30.8535 22.4419 36.076
O 2.95167 42.9288 0.334858
H 2.84415 42.7659 44.603
H 2.02761 43.1486 0.567202
O 4.75487 0.38047 1.45641
H 4.51339 44.2271 2.34866
H 4.13387 0.0338305 0.779105
O 13.7251 42.3918 9.04226
H 13.8198 41.5056 9.39107
H 14.5371 42.5248 8.54717
O 5.18672 3.92516 6.25952
H 5.30074 3.31414 6.98745
H 6.04895 4.4461 6.26633
O 41.2099 30.5631 26.6257
H 41.603 30.8563 27.5012
H 41.0061 29.5956 26.8456
O 10.7694 0.89971 2.27217
H 10.1852 0.682911 1.54482
H 10.9793 -0.04421 2.59269
O 9.79792 5.52619 44.3164
H 9.35034 4.79929 43.8928
H 9.52154 6.27218 43.7767
O 15.1619 4.87199 5.36538
H 15.2166 5.48636 6.12223
H 14.1802 4.70261 5.35317
O 12.4238 4.18298 5.60506
H 11.8714 4.89776 5.94855
H 12.0977 3.91763 4.64586
O 8.4216 3.06381 7.844
H 8.43971 2.11543 7.72383
H 8.99035 3.1032 8.65023
O 7.67335 4.42262 3.19698
H 8.46286 4.76791 2.67606
H 7.03209 4.12155 2.54934
O 13.0894 42.5494 5.88291
H 12.6857 42.5463 6.73465
H 13.9791 42.8335 6.18344
O 14.0375 2.35385 7.36516
H 13.3999 2.61036 6.68687
H 14.7629 2.96655 7.1983
O 7.87706 5.17761 5.93458
H 8.29182 4.48399 6.48203
H 8.0152 4.92777 4.98268
O 11.7844 3.23432 3.21588
H 11.308 2.41075 3.13208
H 11.2348 3.87675 2.74426
O 9.91049 5.65946 2.00427
H 10.0928 6.43854 2.57784
H 9.84812 5.7253 1.05976
O 11.9951 42.6937 3.03917
H 12.4621 42.0445 2.52731
H 12.2791 42.5528 3.91454
O 15.5528 43.808 6.94873
H 16.4503 43.7341 6.6162
H 15.4253 0.561096 7.34419
O 12.4157 1.16241 10.0159
H 12.5997 0.185209 9.92986
H 13.0348 1.50792 9.3417
O 10.1995 6.76574 6.11272
H 10.3841 7.09577 6.99242
H 9.26574 6.48561 6.11435
O 9.83376 2.13823 10.24
H 10.6512 1.61957 10.1588
H 9.8982 2.59258 11.075
O 18.2349 -0.113002 6.23309
H 18.605 0.734061 5.89109
H 18.9944 43.4924 6.55006
O 19.8304 5.41369 44.5837
H 19.7167 4.43044 44.4086
H 19.2007 5.58999 0.144171
O 22.3602 3.84965 2.07534
H 23.2472 3.97072 1.76089
H 21.7583 4.32674 1.47281
O 22.0487 3.77814 4.98057
H 22.1032 3.78645 4.02034
H 22.3695 2.90414 5.26851
O 20.9413 43.6603 7.10391
H 21.7586 -0.181412 6.58342
H 21.2122 42.8074 7.44061
O 19.1275 3.19068 5.51362
H 19.0334 3.72129 6.36608
H 20.1376 3.36489 5.37792
O 19.9205 7.01463 42.3499
H 19.0873 6.52434 42.3677
H 20.2143 6.78744 43.2444
O 22.8337 1.21333 5.94876
H 23.4858 1.10847 6.69108
H 23.3358 0.736014 5.23704
O 20.205 4.06906 8.62766
H 20.3832 3.20432 9.11466
H 19.6448 4.53893 9.24599
O 17.6081 4.53527 3.641
H 16.7481 4.64847 3.99945
H 18.1603 4.1097 4.34658
O 17.9478 5.83945 1.23711
H 17.2896 6.49734 1.05834
H 17.8462 5.43888 2.12505
O 20.866 9.45736 40.8012
H 20.6603 8.63319 41.2091
H 21.7596 9.75154 40.916
O 25.0235 43.4252 5.03232
H 25.8624 43.8002 4.63106
H 24.7236 42.6292 4.54234
O 24.5823 0.158937 7.83621
H 25.2049 0.75252 8.40909
H 25.0957 43.8223 7.18197
O 22.6323 5.0984 7.65955
H 21.8023 4.75927 8.00061
H 22.5898 4.92057 6.71657
O 20.6382 1.26264 9.45964
H 21.2906 1.01051 10.1128
H 20.7283 0.694514 8.66806
O 27.7427 0.513829 3.90989
H 28.2549 0.0176404 3.18884
H 28.3034 1.05393 4.47355
O 27.512 8.28395 0.397274
H 27.9613 8.43265 1.25775
H 27.7943 8.93571 44.9235
O 27.5789 9.44169 43.0602
H 28.2735 9.03935 42.5945
H 27.3781 10.1882 42.5257
O 30.1591 8.14005 6.75664
H 30.2482 8.16469 5.80614
H 29.8041 7.2983 6.84128
O 28.8936 2.72154 6.32064
H 29.7742 2.44263 6.64379
H 28.1593 2.40916 6.9536
O 29.0024 5.40769 6.36801
H 29.3283 4.48874 6.36348
H 28.208 5.59725 5.78171
O 28.7459 41.5922 45.1825
H 28.0101 40.9761 45.2085
H 29.1402 41.2587 44.359
O 31.7729 2.265 6.28549
H 32.2419 2.51487 5.46827
H 32.369 1.68846 6.75088
O 25.0748 4.29105 8.41275
H 24.1402 4.47358 8.18026
H 25.5537 5.11282 8.66781
O 24.6931 4.51384 0.821897
H 25.576 4.22496 0.881462
H 24.6767 5.47758 0.804463
O 24.8843 7.24849 0.566246
H 24.2922 7.81958 45.2496
H 25.7585 7.75643 0.48646
O 28.8778 43.7592 1.61644
H 29.2116 44.5295 1.11383
H 28.8208 43.0519 0.934895
O 26.0506 40.0846 44.8777
H 25.4751 40.1442 45.6845
H 26.0033 39.1107 -0.436624
O 35.8171 32.6485 24.9212
H 35.4189 33.4338 24.6643
H 36.4272 32.5123 24.243
O 28.8366 9.9623 8.51102
H 29.2921 9.32839 7.92444
H 27.9609 9.93615 8.20158
O 26.8633 2.00192 8.38783
H 26.4331 2.88249 8.57151
H 27.3373 1.86387 9.17018
    
    &END COORD
  &END SUBSYS
  &DFT
    BASIS_SET_FILE_NAME  BASIS_SET
    POTENTIAL_FILE_NAME  GTH_POTENTIALS
    &QS
      EPS_DEFAULT 1.0E-10
    &END QS
    &MGRID
      NGRIDS 4
      CUTOFF 135
      REL_CUTOFF 115
    &END MGRID
    &XC
      &XC_FUNCTIONAL PADE
      &END XC_FUNCTIONAL
    &END XC
    &SCF
      SCF_GUESS ATOMIC
      EPS_SCF 1.0E-7
      MAX_SCF 300
      &DIAGONALIZATION  ON
        ALGORITHM STANDARD
      &END DIAGONALIZATION
      &MIXING  T
        METHOD BROYDEN_MIXING
        ALPHA 0.4
        NBROYDEN 8
      &END MIXING
    &END SCF
  &END DFT
  &PRINT
    &FORCES ON
    &END FORCES
  &END PRINT
&END FORCE_EVAL
