&GLOBAL
  PROJECT H2O_bulk
  RUN_TYPE ENERGY_FORCE
  PRINT_LEVEL LOW
&END GLOBAL
&FORCE_EVAL
  METHOD Quickstep
  &SUBSYS
    &KIND H
      ELEMENT   H
      BASIS_SET DZVP-GTH-PBE
      POTENTIAL GTH-PBE-q1
    &END KIND
    &KIND O
      ELEMENT   O
      BASIS_SET DZVP-GTH-PBE
      POTENTIAL GTH-PBE-q6
    &END KIND
    &CELL
      A     46.937    0.000000000    0.000000000
      B     0.000000000    44.121    0.000000000
      C     0.000000000    0.000000000    45.182
    &END CELL
    &COORD

O 0.862867 2.25244 6.77984
H 0.324111 2.39188 7.50213
H 0.863427 3.19032 6.42208
O 4.51072 2.58395 43.9116
H 4.3354 3.41723 43.4907
H 4.93444 2.0071 43.2423
O 5.60366 2.0777 1.42648
H 5.1225 1.49272 2.03333
H 5.02352 2.19799 0.596855
O 4.65846 4.69039 1.73425
H 5.29862 5.13221 2.30996
H 5.01192 3.8022 1.62464
O 0.913922 4.85269 5.39664
H 1.42149 5.20015 4.6299
H 0.620566 5.60898 5.99324
O 4.75262 6.66269 44.8693
H 4.82589 5.94991 0.343044
H 5.66178 7.05081 44.6865
O 3.66461 4.80473 42.8146
H 4.18289 5.56487 43.1701
H 2.90453 5.13651 42.3105
O 2.03465 5.76164 3.04491
H 2.7511 5.15526 2.63792
H 2.47257 6.6106 2.81828
O 4.07547 9.51722 44.5128
H 3.85505 8.58097 44.3318
H 3.3927 9.79089 45.1015
O 6.66084 8.68578 43.7908
H 7.43496 9.2328 43.8252
H 6.03712 9.33006 43.4027
O 14.765 34.4359 28.9199
H 14.2234 35.1495 29.1892
H 15.3972 34.9308 28.3499
O 1.50835 0.678975 4.41555
H 0.736656 1.09653 4.09644
H 1.5446 0.865464 5.3582
O 4.07582 0.641098 3.15799
H 4.18692 44.1005 3.78501
H 3.21432 0.9415 3.49392
O 15.4897 42.9913 6.7171
H 15.8736 42.6104 7.53143
H 15.9447 43.8474 6.53841
O 6.82711 5.56176 3.36491
H 6.75429 6.13964 4.09855
H 7.35867 4.84108 3.75142
O 46.0539 15.6703 44.5097
H 45.8905 16.6124 44.7311
H 46.8271 15.748 43.9479
O 13.7386 0.0787175 0.424368
H 13.9603 43.3428 0.83007
H 14.351 0.155746 44.899
O 10.3901 2.09256 42.4729
H 10.9713 2.11201 41.7308
H 9.80252 2.83841 42.4587
O 15.7636 5.20885 4.03003
H 15.3155 5.59638 4.81666
H 15.1761 4.48787 3.85804
O 13.3443 3.511 4.57381
H 12.4922 3.97356 4.74861
H 13.213 3.12752 3.72492
O 8.52104 0.971699 5.47211
H 8.61672 0.370115 4.74403
H 9.00886 0.550158 6.17214
O 8.90255 1.85812 1.9179
H 9.62641 1.89015 1.26852
H 8.12163 1.62755 1.37298
O 15.3112 41.18 3.91387
H 15.3085 41.7798 4.6862
H 15.702 40.3501 4.10702
O 13.9163 2.44633 7.27874
H 13.6325 2.87628 6.45917
H 14.0286 3.17905 7.86672
O 8.44299 3.4362 3.99095
H 8.41128 2.69279 4.62639
H 8.47154 2.92907 3.11528
O 13.0778 2.69611 1.95306
H 13.4957 1.89393 1.60597
H 12.3625 2.7579 1.31645
O 11.2294 1.74843 45.1258
H 11.0573 1.83405 44.2148
H 11.9526 1.11864 45.306
O 14.0718 41.5178 1.55034
H 13.4796 40.7666 1.52134
H 14.4554 41.4711 2.44252
O 16.9168 1.48078 6.40172
H 17.3519 1.65878 5.53081
H 16.1687 2.09336 6.38487
O 12.4533 43.4972 7.79919
H 12.9643 42.7647 7.54756
H 12.9872 0.141666 7.50843
O 10.9291 4.85277 5.01386
H 10.7782 5.31711 5.84897
H 10.116 4.43576 4.70761
O 9.9069 43.6423 7.12221
H 10.7976 43.7938 7.42189
H 9.48925 43.2028 7.85303
O 18.2608 1.96297 3.96904
H 18.6418 2.87427 4.03705
H 18.9298 1.30076 3.99621
O 17.8855 8.58401 44.879
H 17.9825 8.11699 44.0973
H 17.8379 7.90206 0.398883
O 24.4028 6.63999 3.25712
H 24.3808 6.60381 2.28548
H 24.1579 7.56729 3.36091
O 23.5327 5.57518 5.77236
H 23.7679 5.80626 4.83726
H 23.3922 4.59395 5.67255
O 21.0682 0.884121 9.11605
H 20.6904 0.573147 9.92769
H 21.5648 0.213699 8.68148
O 20.5695 6.01433 5.63806
H 20.3529 5.78553 6.51573
H 21.5301 5.89691 5.66031
O 16.7524 11.3119 0.560255
H 15.8387 11.2102 0.765088
H 17.0379 10.5354 0.0513516
O 22.9952 43.6652 7.95113
H 23.8872 43.8222 8.20209
H 23.0792 42.7695 7.66221
O 19.7898 5.03048 8.18112
H 19.5888 4.11567 8.35609
H 19.9408 5.41481 9.02658
O 18.712 4.67808 3.92995
H 17.8591 4.79627 4.34418
H 19.3998 5.21286 4.34913
O 17.3268 6.65974 1.72747
H 17.7776 6.02483 2.33976
H 16.4196 6.46271 1.88148
O 17.9049 13.7393 1.87096
H 17.6742 12.8011 2.02659
H 18.3007 13.469 1.02661
O 27.992 42.8436 7.52403
H 28.1757 43.1727 6.60049
H 28.1353 41.9188 7.32134
O 25.7117 43.8711 8.72732
H 25.9021 0.69351 8.86416
H 26.478 43.5797 8.29858
O 24.1972 5.32594 9.07755
H 23.3081 5.08631 9.37711
H 24.026 5.62756 8.2035
O 19.0005 2.38614 8.47576
H 18.3765 2.08084 7.83512
H 19.7601 1.86138 8.49651
O 28.5049 42.3775 4.96021
H 27.7672 42.3542 4.27406
H 29.3306 42.4168 4.50909
O 23.4823 7.96664 42.286
H 22.5015 7.96695 42.2981
H 23.8132 8.90783 42.1912
O 24.4395 10.6939 42.6179
H 25.147 10.8854 43.2579
H 23.9091 11.4499 42.8249
O 30.1515 7.84605 5.05329
H 31.1196 7.85378 5.17903
H 30.037 6.8788 5.22866
O 30.1936 3.50958 7.62401
H 31.0093 3.04364 7.78151
H 29.4819 3.07382 8.14317
O 29.7066 4.89683 5.35301
H 29.8553 4.30187 6.12607
H 28.9802 4.60717 4.72681
O 25.3201 43.4373 0.584391
H 24.6622 42.886 -0.00794692
H 25.2721 0.154623 0.193191
O 32.6591 2.05924 7.80054
H 33.23 2.11291 7.00552
H 33.2063 1.71541 8.5112
O 26.604 4.39535 10.2643
H 25.7997 4.59764 9.73432
H 26.6706 5.05109 10.9847
O 24.138 6.24438 0.509309
H 24.0426 7.12235 0.10685
H 24.2847 5.67336 44.9166
O 24.308 5.35035 43.1469
H 24.2614 4.54023 42.6582
H 24.2827 6.1166 42.6046
O 26.5635 42.2478 2.99516
H 25.587 42.2532 2.97826
H 26.72 42.5518 2.14299
O 24.0523 40.6083 44.5769
H 23.4466 40.6616 43.782
H 24.9115 40.6258 44.1922
O 29.9673 25.2565 35.6917
H 30.148 24.4172 36.0058
H 29.3333 25.572 36.2907
O 28.9651 9.57466 2.95464
H 29.351 8.84833 3.32785
H 29.072 9.41998 2.00856
O 28.057 2.17935 9.3139
H 27.7205 2.97927 9.75308
H 28.6474 1.81733 9.9214
    
    &END COORD
  &END SUBSYS
  &DFT
    BASIS_SET_FILE_NAME  BASIS_SET
    POTENTIAL_FILE_NAME  GTH_POTENTIALS
    &QS
      EPS_DEFAULT 1.0E-10
    &END QS
    &MGRID
      NGRIDS 4
      CUTOFF 135
      REL_CUTOFF 115
    &END MGRID
    &XC
      &XC_FUNCTIONAL PADE
      &END XC_FUNCTIONAL
    &END XC
    &SCF
      SCF_GUESS ATOMIC
      EPS_SCF 1.0E-7
      MAX_SCF 300
      &DIAGONALIZATION  ON
        ALGORITHM STANDARD
      &END DIAGONALIZATION
      &MIXING  T
        METHOD BROYDEN_MIXING
        ALPHA 0.4
        NBROYDEN 8
      &END MIXING
    &END SCF
  &END DFT
  &PRINT
    &FORCES ON
    &END FORCES
  &END PRINT
&END FORCE_EVAL
