&GLOBAL
  PROJECT H2O_bulk
  RUN_TYPE ENERGY_FORCE
  PRINT_LEVEL LOW
&END GLOBAL
&FORCE_EVAL
  METHOD Quickstep
  &SUBSYS
    &KIND H
      ELEMENT   H
      BASIS_SET DZVP-GTH-PBE
      POTENTIAL GTH-PBE-q1
    &END KIND
    &KIND O
      ELEMENT   O
      BASIS_SET DZVP-GTH-PBE
      POTENTIAL GTH-PBE-q6
    &END KIND
    &CELL
      A     46.937    0.000000000    0.000000000
      B     0.000000000    44.121    0.000000000
      C     0.000000000    0.000000000    45.182
    &END CELL
    &COORD

O 1.77708 1.19877 45.044
H 1.34463 1.30751 44.2635
H 1.11629 1.07845 0.531073
O 4.69731 4.75197 44.7602
H 4.00283 5.37126 44.4887
H 4.66191 4.07805 44.0913
O 5.15266 3.68778 3.00356
H 5.54844 2.91825 2.6335
H 4.91781 4.26097 2.30135
O 2.919 4.15415 5.04927
H 3.32978 4.34548 5.82136
H 3.625 4.12263 4.42615
O 0.0821084 1.09047 2.15856
H -0.0977008 1.75207 2.86627
H 46.4915 0.426514 2.53235
O 2.23186 6.96317 4.73469
H 2.32652 5.9849 4.7062
H 1.4397 7.17211 5.28345
O 5.97761 2.30086 43.1508
H 5.68313 1.37089 42.9162
H 6.68235 2.51583 42.5719
O 0.0829559 3.23889 4.09828
H 0.872159 3.44623 4.53992
H 46.2344 3.63141 4.53368
O 2.88112 8.8368 2.57206
H 2.55904 8.15414 3.20137
H 2.80383 8.42003 1.70545
O 47.0919 8.43719 6.25171
H 46.4196 8.08822 6.84922
H 47.338 9.22032 6.78233
O 35.439 17.6659 38.7712
H 35.6084 16.751 38.9303
H 34.662 17.7768 39.3563
O 4.0259 43.9581 0.474544
H 3.81246 43.0112 0.64539
H 3.19942 0.287921 0.132858
O 5.8847 1.85706 1.27842
H 6.12558 2.17931 0.440683
H 5.31373 1.06966 1.07261
O 13.0905 43.0338 8.70743
H 12.734 42.209 9.02418
H 13.7897 43.2693 9.3068
O 4.39225 5.5141 7.23229
H 5.22666 5.11112 7.10629
H 4.43219 6.4486 7.11586
O 41.1524 34.9467 21.3703
H 40.555 35.2715 20.7447
H 41.9124 35.1046 20.9798
O 9.98078 1.14268 4.06471
H 9.24291 0.656839 3.69719
H 10.8205 0.568012 4.0246
O 9.65322 7.14105 43.0855
H 8.91552 7.04931 42.4686
H 9.7577 8.06693 42.8171
O 14.3319 5.49411 5.45887
H 14.495 6.48835 5.48404
H 13.4327 5.34287 5.1254
O 11.6048 5.01149 5.08057
H 10.9489 4.99896 5.80563
H 11.1176 4.78957 4.35363
O 9.59611 1.82466 6.87207
H 9.6299 1.41325 6.01172
H 9.32768 1.16641 7.51609
O 7.43241 4.73204 4.19524
H 8.22557 4.61192 3.63735
H 6.70545 4.37037 3.75044
O 13.3542 43.2408 5.8014
H 13.2288 42.7293 6.61279
H 13.8056 43.9653 6.32413
O 11.9356 3.01249 7.70772
H 11.1223 2.70518 7.27485
H 12.0935 3.9181 7.44904
O 6.9912 4.25213 6.79472
H 7.3589 3.36592 6.99901
H 7.22523 4.48934 5.95278
O 9.89932 3.80339 2.66238
H 9.92924 2.8436 2.8761
H 10.1608 3.91222 1.79813
O 10.4189 4.60174 45.387
H 10.4463 4.24512 44.5036
H 10.2836 5.51891 45.115
O 11.9693 43.6512 3.70382
H 12.6124 43.6684 2.97511
H 12.5085 43.3548 4.47661
O 14.8403 1.01296 7.38062
H 15.8054 1.01285 7.1176
H 14.4421 1.89029 7.26888
O 11.838 1.54015 10.2521
H 11.8841 0.969396 9.4816
H 11.8727 2.37249 9.83945
O 9.59506 5.23206 7.4087
H 9.72672 6.16124 7.61072
H 8.6477 5.12158 7.1529
O 8.99004 44.4611 9.60325
H 9.54497 0.951225 10.1279
H 8.32121 44.2493 10.2626
O 17.7188 0.95676 6.66762
H 18.2745 1.63926 6.33472
H 18.3831 0.221915 6.68111
O 19.5612 5.64788 0.622118
H 20.3163 5.4171 1.17307
H 18.7831 5.34625 1.05683
O 22.5293 4.41412 2.32177
H 23.202 4.21476 1.66501
H 22.9959 5.02819 2.93283
O 21.7879 2.71758 4.55515
H 22.035 3.09648 3.70587
H 22.2619 1.8367 4.67994
O 20.6212 43.3246 6.77932
H 21.1603 43.5843 6.0403
H 20.4891 42.4159 6.56826
O 19.3147 3.23229 5.81808
H 19.6764 3.59681 6.66955
H 20.1011 3.04565 5.26967
O 19.73 5.31814 42.849
H 19.8983 4.37616 42.7845
H 19.8319 5.41187 43.7937
O 23.0431 0.246231 5.03675
H 23.6053 0.30377 5.83724
H 23.6208 0.0306562 4.26386
O 21.0429 3.61828 8.61066
H 21.0997 2.6679 8.92826
H 20.6174 4.05847 9.34504
O 16.9644 4.65365 4.46386
H 16.0492 4.74018 4.82329
H 17.4533 3.9943 5.01531
O 17.1926 4.78526 1.70957
H 16.3028 4.84069 1.36443
H 17.063 4.67799 2.69715
O 21.4627 5.88918 40.6678
H 20.9385 5.78194 41.4895
H 21.7805 6.77684 40.6094
O 25.0198 43.95 3.02658
H 26.0191 -0.0629452 3.04078
H 24.7373 43.2433 2.43726
O 24.3462 0.808355 7.48793
H 24.7063 1.67943 7.62652
H 25.0094 44.2043 7.77952
O 22.9191 4.55507 6.87828
H 22.4157 4.21761 7.6337
H 22.643 4.13956 6.0619
O 21.1544 0.922357 9.21912
H 20.5891 0.562444 9.81665
H 21.1868 0.398314 8.38277
O 27.7354 0.815915 3.25839
H 28.6466 0.541036 3.09704
H 27.6302 1.27564 4.11241
O 27.6803 7.74086 1.25125
H 27.3123 8.56413 1.42248
H 28.5338 8.04501 0.829528
O 29.4713 9.56887 -0.435358
H 29.8243 9.23011 43.8827
H 30.0412 10.3079 -0.203866
O 29.1722 6.83842 8.21912
H 28.5377 6.25085 8.65732
H 28.9802 6.72619 7.29289
O 28.2951 2.66543 5.72873
H 29.0087 2.2608 6.22609
H 27.6608 2.58269 6.42552
O 28.1766 5.89492 5.48513
H 28.2884 4.93448 5.50192
H 28.1322 6.05377 4.57081
O 29.869 41.642 0.845357
H 29.0051 41.3597 0.382106
H 30.217 42.1194 45.2968
O 30.8964 1.82792 6.9018
H 31.6404 1.69192 6.3272
H 31.142 1.23549 7.62407
O 25.3882 5.40063 7.82494
H 24.5564 5.35507 7.32733
H 26.063 5.6386 7.19809
O 24.5026 4.41899 0.253247
H 24.7468 3.55094 -0.154727
H 25.3099 4.88401 45.5573
O 26.8677 5.66476 44.7482
H 26.4515 5.92714 43.9093
H 27.0671 6.53753 45.1416
O 30.2991 44.2475 2.65387
H 30.8754 44.1076 3.46499
H 30.3905 43.3309 2.27011
O 28.2745 40.5927 43.6748
H 28.1499 39.6859 43.614
H 27.636 40.881 43.0105
O 36.1833 35.6821 20.7224
H 37.105 35.6626 20.5119
H 36.0353 34.7625 20.8185
O 30.7759 9.13278 9.07352
H 30.5046 8.2463 8.90338
H 30.3698 9.58223 8.38647
O 26.2271 2.96311 8.24653
H 25.939 3.84858 8.00006
H 26.1674 3.00978 9.24635
    
    &END COORD
  &END SUBSYS
  &DFT
    BASIS_SET_FILE_NAME  BASIS_SET
    POTENTIAL_FILE_NAME  GTH_POTENTIALS
    &QS
      EPS_DEFAULT 1.0E-10
    &END QS
    &MGRID
      NGRIDS 4
      CUTOFF 135
      REL_CUTOFF 115
    &END MGRID
    &XC
      &XC_FUNCTIONAL PADE
      &END XC_FUNCTIONAL
    &END XC
    &SCF
      SCF_GUESS ATOMIC
      EPS_SCF 1.0E-7
      MAX_SCF 300
      &DIAGONALIZATION  ON
        ALGORITHM STANDARD
      &END DIAGONALIZATION
      &MIXING  T
        METHOD BROYDEN_MIXING
        ALPHA 0.4
        NBROYDEN 8
      &END MIXING
    &END SCF
  &END DFT
  &PRINT
    &FORCES ON
    &END FORCES
  &END PRINT
&END FORCE_EVAL
