&GLOBAL
  PROJECT H2O_bulk
  RUN_TYPE ENERGY_FORCE
  PRINT_LEVEL LOW
&END GLOBAL
&FORCE_EVAL
  METHOD Quickstep
  &SUBSYS
    &KIND H
      ELEMENT   H
      BASIS_SET DZVP-GTH-PBE
      POTENTIAL GTH-PBE-q1
    &END KIND
    &KIND O
      ELEMENT   O
      BASIS_SET DZVP-GTH-PBE
      POTENTIAL GTH-PBE-q6
    &END KIND
    &CELL
      A     46.937    0.000000000    0.000000000
      B     0.000000000    44.121    0.000000000
      C     0.000000000    0.000000000    45.182
    &END CELL
    &COORD

O 3.4839 3.14003 6.56815
H 2.94034 3.27319 7.3806
H 3.33191 4.01276 6.15079
O 4.7697 1.13013 44.0589
H 4.25663 1.74901 43.522
H 4.97817 0.412304 43.448
O 6.23131 2.81338 0.349512
H 6.11347 2.2241 1.12144
H 5.89148 2.41019 44.7553
O 4.80685 5.34504 1.00425
H 5.33865 4.58308 0.802519
H 4.07048 5.10252 1.55364
O 3.10869 5.52132 4.96903
H 3.78633 6.03555 4.49111
H 2.33491 6.04683 4.77349
O 3.24338 5.49582 42.2419
H 3.26708 5.9339 43.083
H 4.01842 5.83588 41.8721
O 2.89546 2.80117 42.9164
H 3.17678 3.73428 42.7754
H 2.65341 2.54726 42.0176
O 4.71634 7.08229 3.21718
H 5.51653 7.38329 3.50938
H 5.00923 6.62444 2.4436
O 8.02852 8.50306 41.9018
H 8.60034 7.77775 42.2691
H 8.63799 9.24341 41.8858
O 5.03169 7.16737 41.2196
H 5.95725 7.4125 41.1802
H 4.58192 7.97526 40.9924
O 0.903752 1.68634 22.2803
H 1.6574 2.25767 22.1348
H 1.35569 0.860123 22.354
O 5.03863 0.959216 5.24393
H 4.28943 0.803738 5.86712
H 5.67267 1.44582 5.80541
O 5.85962 1.02129 2.42138
H 6.61764 0.51621 2.74663
H 5.3458 1.21953 3.1569
O 17.6773 42.5991 0.63559
H 18.3281 41.9421 0.732863
H 17.9025 43.2095 1.38078
O 7.73899 6.91831 3.52546
H 8.28887 7.32663 2.83656
H 8.15396 6.04028 3.54742
O 3.58029 4.70143 15.9135
H 3.34339 5.50247 16.2142
H 2.8583 4.21316 16.152
O 11.1237 42.0897 1.57188
H 11.8689 41.5211 1.54109
H 10.3966 41.5191 1.76265
O 10.9759 42.9629 43.277
H 10.2572 42.5834 42.7349
H 11.6646 42.887 42.6219
O 14.7532 6.15009 3.84054
H 14.1252 5.97319 4.54901
H 14.647 5.36969 3.28739
O 14.3625 3.04117 3.36649
H 13.5361 3.21476 3.84095
H 14.1197 2.58264 2.51566
O 11.5679 3.03962 6.93446
H 10.7058 2.90763 7.26281
H 12.0074 2.22118 7.20368
O 8.95275 2.88995 1.42463
H 9.48101 2.17602 1.08364
H 8.20377 2.94082 0.842811
O 15.6423 41.1793 44.8402
H 16.232 41.8442 0.0302626
H 15.3974 41.6078 44.0563
O 15.7102 1.64623 5.4668
H 15.2554 2.13548 4.76116
H 16.5856 2.02229 5.50873
O 9.62363 4.61538 3.48568
H 9.05237 4.05308 4.09996
H 9.49196 4.10359 2.64096
O 13.1298 2.02883 1.11427
H 13.8041 2.10138 0.469532
H 12.5126 1.38596 0.74837
O 11.2048 0.388164 0.355003
H 11.1276 0.0433309 44.6596
H 11.1776 43.6788 0.795935
O 13.2406 40.4177 1.30938
H 13.5082 39.6723 1.82345
H 14.0678 40.7107 0.881393
O 18.3872 44.1008 2.7359
H 18.4014 0.931659 2.71633
H 17.9985 43.9758 3.6027
O 15.2333 44.0114 7.60663
H 15.6627 43.1947 7.3621
H 15.2798 0.417814 6.81664
O 12.4289 4.52267 4.87942
H 12.3043 4.01559 5.71426
H 11.5805 4.49668 4.45863
O 12.4306 0.423366 8.11048
H 13.3345 0.13146 8.08334
H 11.8804 43.8464 8.46198
O 18.3411 3.16927 2.48565
H 18.2141 3.79759 3.19236
H 18.129 3.6577 1.71772
O 15.8327 11.2969 4.52087
H 15.4556 11.4479 5.35778
H 15.2342 10.6325 4.0803
O 20.3921 6.1726 2.96681
H 20.898 5.9399 2.19127
H 19.5028 5.82555 3.0249
O 21.4132 6.80208 5.53789
H 21.9637 7.50375 5.32147
H 21.0708 6.40901 4.73426
O 20.6061 44.0201 8.95246
H 20.1331 43.2111 9.07563
H 21.5032 43.8756 9.28708
O 18.8066 6.43197 6.793
H 19.0097 5.77894 7.47374
H 19.6354 6.63122 6.34598
O 16.5077 13.9314 3.43555
H 16.3926 13.0005 3.65707
H 17.4542 14.0808 3.33175
O 23.1794 0.277996 10.4645
H 23.838 0.516816 9.81593
H 22.8965 1.07092 10.9378
O 19.9866 4.64809 8.6503
H 20.2684 3.84703 8.0737
H 19.6668 4.37424 9.50534
O 17.6587 5.53391 4.25113
H 16.9235 6.19514 4.16259
H 18.0871 5.73116 5.11884
O 14.4134 9.02531 3.17027
H 14.0941 8.93107 2.27014
H 14.699 8.10602 3.37606
O 14.5732 15.7286 4.16351
H 15.4208 15.2659 4.0483
H 14.5479 16.3266 3.41859
O 26.9266 43.251 7.60622
H 27.0957 42.9099 8.45645
H 27.2189 42.6058 6.97452
O 24.9439 1.09602 8.48601
H 24.9878 1.81377 7.80404
H 25.3835 0.308735 8.08559
O 23.2223 6.07223 7.5535
H 22.801 5.83215 8.39865
H 22.5002 6.10732 6.95451
O 20.6011 2.27966 7.20036
H 20.3147 1.91401 6.31423
H 20.5186 1.53457 7.76301
O 27.7016 41.2343 5.86082
H 27.2057 41.0453 5.00708
H 28.6353 41.0934 5.7625
O 22.3087 7.96412 41.7485
H 22.7933 8.16532 40.8693
H 21.4201 8.3176 41.5023
O 21.0347 9.55815 39.6308
H 20.1873 9.60534 39.2271
H 21.6525 10.1071 39.1388
O 33.5674 5.83446 3.19928
H 32.9603 5.44524 3.7807
H 33.3289 5.50206 2.35291
O 30.1318 4.24568 7.10224
H 30.3846 3.85632 7.95731
H 29.1822 4.27015 7.09553
O 31.6359 5.11022 5.18141
H 31.2092 4.68305 5.93004
H 31.7757 5.91813 5.64588
O 26.25 40.5619 0.486349
H 25.2156 40.5999 0.418997
H 26.5023 41.287 45.1506
O 31.0377 2.6089 9.39759
H 30.4798 1.84167 9.60461
H 31.8729 2.15079 9.41151
O 25.73 5.61624 6.27718
H 24.8572 5.58479 6.66601
H 25.5504 5.81511 5.33608
O 22.0504 5.51839 0.902123
H 21.8631 4.6903 0.564833
H 22.4989 6.00713 0.197922
O 23.1989 7.47941 44.3526
H 23.7414 8.10877 44.7234
H 22.9576 7.77875 43.4729
O 27.3582 40.5729 3.31896
H 26.9177 39.7759 3.02543
H 27.1164 41.1671 2.61039
O 26.8972 43.9324 1.81411
H 27.5845 0.40226 1.97914
H 26.3734 0.3858 1.22456
O 24.7501 18.5374 0.248932
H 23.8091 18.3997 0.468282
H 24.7645 19.4967 45.1905
O 35.6131 7.3984 2.10915
H 35.0521 6.92997 2.80943
H 36.4531 7.1136 2.47576
O 27.3345 3.74778 7.60527
H 26.8395 4.39596 7.03394
H 27.2868 4.11007 8.459
    
    &END COORD
  &END SUBSYS
  &DFT
    BASIS_SET_FILE_NAME  BASIS_SET
    POTENTIAL_FILE_NAME  GTH_POTENTIALS
    &QS
      EPS_DEFAULT 1.0E-10
    &END QS
    &MGRID
      NGRIDS 4
      CUTOFF 135
      REL_CUTOFF 115
    &END MGRID
    &XC
      &XC_FUNCTIONAL PADE
      &END XC_FUNCTIONAL
    &END XC
    &SCF
      SCF_GUESS ATOMIC
      EPS_SCF 1.0E-7
      MAX_SCF 300
      &DIAGONALIZATION  ON
        ALGORITHM STANDARD
      &END DIAGONALIZATION
      &MIXING  T
        METHOD BROYDEN_MIXING
        ALPHA 0.4
        NBROYDEN 8
      &END MIXING
    &END SCF
  &END DFT
  &PRINT
    &FORCES ON
    &END FORCES
  &END PRINT
&END FORCE_EVAL
