&GLOBAL
  PROJECT H2O_bulk
  RUN_TYPE ENERGY_FORCE
  PRINT_LEVEL LOW
&END GLOBAL
&FORCE_EVAL
  METHOD Quickstep
  &SUBSYS
    &KIND H
      ELEMENT   H
      BASIS_SET DZVP-GTH-PBE
      POTENTIAL GTH-PBE-q1
    &END KIND
    &KIND O
      ELEMENT   O
      BASIS_SET DZVP-GTH-PBE
      POTENTIAL GTH-PBE-q6
    &END KIND
    &CELL
      A     46.937    0.000000000    0.000000000
      B     0.000000000    44.121    0.000000000
      C     0.000000000    0.000000000    45.182
    &END CELL
    &COORD

O -0.115006 1.82387 5.60829
H 46.6381 1.49222 6.54218
H 0.133089 2.7474 5.64799
O 3.95545 2.30254 43.5594
H 4.09824 3.18928 43.205
H 3.64391 1.71431 42.8756
O 5.25766 2.65639 1.23545
H 4.78606 1.98127 1.7496
H 5.00975 2.45922 0.29819
O 4.9329 5.55836 2.29221
H 5.51418 5.77365 3.03488
H 5.1646 4.61426 2.19607
O 0.483336 4.78836 5.3795
H 1.0292 5.17104 4.68747
H 0.802369 5.25192 6.1203
O 5.20178 6.82737 44.741
H 5.15602 6.60751 0.511529
H 5.94419 7.37466 44.5729
O 4.35484 4.74467 42.9774
H 4.64639 5.34937 43.6767
H 4.16195 5.36573 42.2114
O 1.963 5.35705 2.96782
H 2.85274 5.29074 2.57098
H 1.49437 4.65081 2.45579
O 3.31007 9.20241 44.9775
H 3.71025 8.38089 44.6925
H 2.38011 9.11093 44.7659
O 6.65905 9.0363 43.6374
H 7.57668 9.38237 43.7001
H 6.23512 9.81385 43.2299
O 16.7164 32.8765 29.8771
H 17.4473 33.4316 29.9251
H 17.1244 32.0102 29.6727
O 1.98822 43.787 4.37633
H 1.83174 43.6523 5.28573
H 1.35424 0.367214 4.23188
O 4.60832 0.396859 2.79657
H 5.15037 44.3349 3.53644
H 3.77466 0.00366734 3.16942
O 15.2129 42.7876 6.77829
H 15.7358 42.0862 7.14205
H 15.8263 43.5466 6.74839
O 6.51792 5.46702 4.70016
H 6.54555 6.27796 5.25739
H 7.35646 4.96324 4.87751
O 45.46 17.6921 42.2359
H 45.5539 17.8888 41.2844
H 45.3042 16.7005 42.1956
O 13.1773 0.178153 0.267252
H 13.2269 43.5384 0.829436
H 13.9652 0.0756611 -0.280809
O 10.718 2.9529 42.2759
H 11.4323 2.58085 41.8093
H 10.2907 3.45663 41.6021
O 15.9028 5.56049 4.4145
H 15.68 6.35206 4.90452
H 15.0381 5.06041 4.39392
O 13.6815 3.77998 4.95738
H 12.7894 4.17521 4.99263
H 13.5604 3.05038 4.27701
O 8.92126 0.311411 5.01526
H 8.94963 43.6581 4.47108
H 9.25792 0.022688 5.87491
O 7.91105 2.37246 2.31134
H 8.69657 2.15286 1.74053
H 7.06748 2.35378 1.83444
O 14.5726 41.477 4.2977
H 14.5412 42.2154 4.8771
H 14.0638 40.7851 4.6818
O 14.3466 2.42391 7.54294
H 14.0408 2.79572 6.71418
H 14.4585 3.21488 8.07752
O 9.04879 3.58255 4.37376
H 8.88747 2.63701 4.6132
H 8.71346 3.58022 3.44987
O 13.2068 2.67057 2.53893
H 13.4523 1.97187 1.89572
H 12.3759 2.93657 2.3337
O 10.4907 2.58564 0.50423
H 10.3397 3.24477 44.9698
H 11.0068 1.83887 0.195941
O 14.1249 41.7766 1.52729
H 14.1715 40.9234 1.13765
H 14.2181 41.6889 2.43321
O 17.0698 0.965003 7.10582
H 17.313 1.33699 6.21505
H 16.2675 1.40603 7.38345
O 12.9632 0.204558 8.62329
H 13.6366 43.6442 8.46573
H 13.3526 0.998848 8.31253
O 11.3444 4.81255 4.47717
H 11.0066 5.69255 4.65056
H 10.5992 4.15412 4.57088
O 10.3136 43.5806 7.8555
H 11.2891 43.7512 8.05535
H 10.1231 43.0143 8.5957
O 18.0723 2.03968 4.49879
H 18.0814 2.88563 4.0337
H 18.7124 1.4188 4.08313
O 17.1735 8.37715 44.4194
H 17.8525 8.00747 43.8791
H 16.9655 7.68135 45.0369
O 24.4049 6.00664 3.92514
H 24.0641 6.12956 3.0476
H 25.1233 6.5898 4.05744
O 23.4199 4.21759 5.7909
H 23.8204 4.84905 5.09007
H 23.7608 3.37184 5.57467
O 21.2636 0.821306 9.34407
H 21.4621 44.7235 10.2403
H 21.8961 0.469033 8.74698
O 20.2998 4.96699 5.51441
H 20.1425 4.77849 6.49755
H 21.2126 4.79611 5.36743
O 17.3401 11.1066 44.9404
H 16.442 11.016 44.6717
H 17.7405 10.2936 44.608
O 23.0394 -0.167023 7.53217
H 24.0105 -0.036271 7.50247
H 23.0102 43.0087 7.40398
O 19.8785 4.78921 8.39955
H 19.5496 3.92386 8.72272
H 19.225 5.42308 8.68261
O 18.4164 4.45177 3.41686
H 17.5693 4.76496 3.71829
H 19.034 4.57401 4.1455
O 17.2031 6.33422 1.01821
H 17.8923 5.67553 0.933519
H 16.7303 6.01073 1.77402
O 18.505 13.0922 1.38891
H 18.1546 12.2464 1.12983
H 18.9502 13.2892 0.585238
O 27.7352 42.3686 6.99498
H 28.1055 42.5752 6.15182
H 28.3202 41.6176 7.24755
O 25.9379 0.295051 7.72405
H 26.2184 0.838612 8.46366
H 26.7127 43.782 7.56248
O 23.9903 5.43506 8.2944
H 23.0705 5.43261 8.58596
H 23.974 5.02461 7.43286
O 19.0128 2.35429 9.28192
H 18.4627 1.90869 8.69074
H 19.839 1.87353 9.23303
O 28.6608 43.2884 4.61733
H 27.7803 43.2021 4.15706
H 28.9 0.07655 4.64994
O 23.5063 8.12227 42.7712
H 22.5969 8.07989 42.3872
H 23.9332 8.87489 42.3614
O 25.0799 10.7342 42.3738
H 25.1923 10.7144 43.299
H 25.8036 11.2972 42.1382
O 29.4495 7.76329 5.43873
H 30.1385 7.87678 6.11397
H 29.5391 6.77076 5.46443
O 30.0445 2.68702 6.90496
H 30.8626 2.33996 7.33045
H 29.2561 2.55891 7.4572
O 29.8818 5.07996 5.42092
H 29.9905 4.45483 6.13984
H 30.3973 4.7593 4.64765
O 25.2982 42.7945 0.74491
H 25.0151 42.0499 0.180051
H 24.6001 43.5371 45.8055
O 32.5904 1.91076 7.88944
H 33.5057 1.92969 7.57315
H 32.5706 1.34058 8.64036
O 25.9772 4.99413 10.1888
H 25.2711 5.25234 9.56777
H 25.9627 5.49403 10.9563
O 24.2813 6.71811 1.11476
H 23.9738 7.63836 0.924408
H 24.5933 6.29389 0.283048
O 25.0225 5.72011 43.8734
H 24.949 4.79813 43.5286
H 24.547 6.3166 43.3151
O 25.957 42.8961 3.40831
H 25.7436 42.1805 3.97271
H 25.8412 42.5768 2.46732
O 24.2339 40.1256 44.2934
H 24.8053 40.256 43.5475
H 23.3343 40.0022 43.8368
O 30.6798 26.2484 34.2938
H 31.5871 25.943 34.4089
H 30.237 25.5999 34.8566
O 28.315 9.52009 3.40976
H 28.6604 9.00306 4.16047
H 29.0639 9.45406 2.78547
O 27.3468 2.37873 9.32232
H 26.8418 3.18272 9.39282
H 27.7243 2.22732 10.2561
    
    &END COORD
  &END SUBSYS
  &DFT
    BASIS_SET_FILE_NAME  BASIS_SET
    POTENTIAL_FILE_NAME  GTH_POTENTIALS
    &QS
      EPS_DEFAULT 1.0E-10
    &END QS
    &MGRID
      NGRIDS 4
      CUTOFF 135
      REL_CUTOFF 115
    &END MGRID
    &XC
      &XC_FUNCTIONAL PADE
      &END XC_FUNCTIONAL
    &END XC
    &SCF
      SCF_GUESS ATOMIC
      EPS_SCF 1.0E-7
      MAX_SCF 300
      &DIAGONALIZATION  ON
        ALGORITHM STANDARD
      &END DIAGONALIZATION
      &MIXING  T
        METHOD BROYDEN_MIXING
        ALPHA 0.4
        NBROYDEN 8
      &END MIXING
    &END SCF
  &END DFT
  &PRINT
    &FORCES ON
    &END FORCES
  &END PRINT
&END FORCE_EVAL
