&GLOBAL
  PROJECT H2O_bulk
  RUN_TYPE ENERGY_FORCE
  PRINT_LEVEL LOW
&END GLOBAL
&FORCE_EVAL
  METHOD Quickstep
  &SUBSYS
    &KIND H
      ELEMENT   H
      BASIS_SET DZVP-GTH-PBE
      POTENTIAL GTH-PBE-q1
    &END KIND
    &KIND O
      ELEMENT   O
      BASIS_SET DZVP-GTH-PBE
      POTENTIAL GTH-PBE-q6
    &END KIND
    &CELL
      A     46.937    0.000000000    0.000000000
      B     0.000000000    44.121    0.000000000
      C     0.000000000    0.000000000    45.182
    &END CELL
    &COORD

O 47.0128 1.12698 3.87522
H 46.067 1.0939 3.74316
H 0.214094 2.08354 4.01002
O 4.14915 2.48853 44.1176
H 4.62623 2.97055 43.4296
H 3.77344 1.79865 43.6247
O 5.00906 2.68205 1.57277
H 4.53459 1.93491 1.96733
H 4.69202 2.7587 0.673834
O 4.78037 5.06659 2.94287
H 5.13338 5.07702 3.8279
H 4.96815 4.22541 2.48758
O 0.288447 3.82485 4.63519
H 0.871713 4.5771 4.20237
H 47.125 4.01202 5.53619
O 4.64894 7.45689 0.187355
H 4.88367 6.77042 0.798701
H 5.45181 7.86621 -0.230586
O 5.18792 4.52455 42.3702
H 4.72468 5.23719 42.8247
H 4.92748 4.68132 41.5068
O 2.19293 5.41977 3.52143
H 3.14014 5.11097 3.43825
H 1.90197 5.82338 2.72244
O 2.56661 9.3737 45.0733
H 3.2452 8.71722 0.138237
H 2.0252 8.93693 44.4248
O 6.93804 9.22054 44.2039
H 7.27161 9.65532 43.3808
H 7.27173 9.85551 -0.322882
O 19.2171 30.9448 31.0001
H 19.4938 30.0656 30.8309
H 18.4861 30.7745 31.6404
O 2.34979 43.6525 4.34571
H 2.14923 42.9943 5.01024
H 1.53242 44.1956 4.13798
O 4.34844 44.4783 2.70836
H 4.62528 43.7746 2.0849
H 3.79871 44.1444 3.41601
O 15.3991 42.4025 7.3761
H 15.4306 41.6219 7.94347
H 16.2256 42.917 7.52548
O 5.92613 5.04738 5.56241
H 5.67305 5.04763 6.49064
H 6.74086 4.59785 5.50891
O 44.7224 19.9363 39.4772
H 43.9933 20.5888 39.1333
H 45.0296 19.5535 38.5955
O 12.7268 0.545556 1.05026
H 12.7036 -0.228908 1.61419
H 13.5586 0.377609 0.627493
O 10.9255 4.29795 43.196
H 11.8039 4.58532 42.9796
H 10.4929 4.62605 42.4369
O 15.7188 6.68106 4.40446
H 15.4863 7.24876 3.70525
H 14.9307 6.15793 4.50999
O 13.6602 4.224 4.83356
H 12.7258 4.38063 4.84549
H 13.7071 3.58789 4.14167
O 9.24313 0.791273 6.16168
H 9.16661 -0.0634094 5.73496
H 9.92473 0.615439 6.83109
O 7.8325 2.7329 1.99762
H 8.41788 2.30809 1.29795
H 6.86366 2.82837 1.70443
O 13.4258 42.0469 4.95482
H 14.073 42.3592 5.60427
H 13.0211 41.2013 5.26738
O 14.6086 2.8699 7.19261
H 14.3721 3.33773 6.36278
H 14.6547 3.58144 7.81395
O 8.81522 3.62635 4.21944
H 8.86394 2.77465 4.68944
H 8.46276 3.24182 3.379
O 13.0551 2.80839 2.70698
H 12.9979 1.95192 2.28475
H 12.2274 3.27634 2.47431
O 10.3395 2.23226 0.414857
H 10.5521 2.88618 44.9177
H 10.984 1.50849 0.450166
O 13.9046 42.4842 1.93774
H 14.4156 41.75 1.56729
H 13.9687 42.2326 2.91025
O 16.9304 0.96555 7.50563
H 17.2885 1.00071 6.58147
H 16.3572 1.76873 7.4846
O 13.6789 0.303122 8.13961
H 14.1909 -0.468904 7.87914
H 13.9665 1.17177 7.71193
O 10.9203 5.05434 4.19314
H 10.4766 5.88659 4.27262
H 10.2042 4.37936 4.28087
O 10.9403 -0.282423 8.17429
H 11.9177 -0.00582775 8.15501
H 10.7006 43.6807 9.07304
O 18.2168 1.37442 4.92712
H 18.926 1.96898 5.32347
H 17.7312 1.98495 4.32425
O 16.6589 7.9273 44.6297
H 15.8793 7.37811 44.4072
H 17.2561 7.29845 44.9973
O 24.8029 5.1591 4.07799
H 24.5478 5.84418 3.41926
H 25.7074 5.29678 4.36835
O 22.7983 3.93816 5.29108
H 23.5869 4.39585 4.85995
H 23.1101 3.01985 5.44616
O 21.541 0.0806473 9.91101
H 21.9577 -0.367068 10.6424
H 22.228 0.143122 9.23614
O 19.9024 3.43108 5.54303
H 19.9404 3.73266 6.4889
H 20.8032 3.45426 5.23479
O 17.8658 10.6498 43.7861
H 18.1896 9.93733 43.2557
H 17.1253 10.1666 44.1976
O 23.3606 0.359722 7.88208
H 24.2939 0.437321 7.64937
H 23.0297 44.0303 7.09704
O 20.3 4.47606 8.19509
H 20.1047 3.66955 8.74394
H 19.7146 5.16582 8.55174
O 18.0157 4.86661 3.48876
H 17.4388 5.61364 3.80346
H 18.67 4.6704 4.14757
O 17.614 5.48466 0.881058
H 17.9616 5.11718 1.71204
H 17.4088 4.7238 0.290219
O 19.267 12.2786 0.789861
H 18.6418 12.5648 0.119086
H 19.5332 11.503 45.4828
O 27.387 42.3472 6.49928
H 27.809 42.6221 5.63054
H 27.9806 41.6117 6.73652
O 26.0488 0.594468 7.25854
H 26.3545 1.2991 7.8327
H 26.5908 43.9549 7.22529
O 22.8733 5.23816 7.86627
H 21.9997 4.89198 8.08041
H 22.7682 5.21623 6.92022
O 19.652 2.15296 9.15411
H 18.8349 1.68322 8.99739
H 20.1811 1.45545 9.58128
O 28.4573 43.9471 4.35934
H 27.7311 -0.295737 3.76743
H 28.612 0.801686 4.43357
O 24.199 8.46001 43.5395
H 23.4576 7.96887 43.2469
H 24.2974 9.07468 42.7966
O 25.6458 10.51 41.8858
H 25.6647 11.2067 41.1843
H 26.6047 10.5245 42.0352
O 28.8758 7.42525 5.91456
H 29.6326 7.61844 6.49005
H 29.1509 6.58985 5.6119
O 29.3792 2.54669 6.5777
H 30.1783 2.34909 7.13916
H 28.7053 2.87428 7.23091
O 30.0113 5.04398 5.4176
H 29.8936 4.14826 5.74103
H 30.5854 5.01014 4.69321
O 24.9061 42.0337 0.520472
H 24.0108 41.7934 0.640471
H 25.2692 41.2495 0.347554
O 31.7141 1.92692 8.12004
H 32.6287 2.03346 7.87308
H 31.7243 1.27056 8.83261
O 25.3132 4.67865 8.84428
H 24.49 4.89387 8.39873
H 25.2535 5.11721 9.69297
O 23.908 6.72492 2.08762
H 23.5886 7.6451 2.04818
H 24.3574 6.70854 1.25703
O 25.5294 6.41326 -0.230314
H 26.4902 6.44548 -0.178818
H 25.2084 7.17341 44.3906
O 26.0854 43.3674 3.10013
H 25.3056 43.9224 3.19058
H 26.0278 43.0306 2.17635
O 24.5575 39.8267 44.1734
H 24.8583 40.2641 43.3478
H 24.7168 38.9194 43.9969
O 31.6061 27.4244 32.6265
H 32.4873 26.9358 32.5628
H 31.0129 26.6919 32.9091
O 28.0406 9.51493 4.23504
H 28.3493 8.82574 4.88676
H 27.9197 10.3054 4.76461
O 27.3895 2.71411 9.103
H 26.6537 3.39307 9.04971
H 27.3061 2.49432 9.98983
    
    &END COORD
  &END SUBSYS
  &DFT
    BASIS_SET_FILE_NAME  BASIS_SET
    POTENTIAL_FILE_NAME  GTH_POTENTIALS
    &QS
      EPS_DEFAULT 1.0E-10
    &END QS
    &MGRID
      NGRIDS 4
      CUTOFF 135
      REL_CUTOFF 115
    &END MGRID
    &XC
      &XC_FUNCTIONAL PADE
      &END XC_FUNCTIONAL
    &END XC
    &SCF
      SCF_GUESS ATOMIC
      EPS_SCF 1.0E-7
      MAX_SCF 300
      &DIAGONALIZATION  ON
        ALGORITHM STANDARD
      &END DIAGONALIZATION
      &MIXING  T
        METHOD BROYDEN_MIXING
        ALPHA 0.4
        NBROYDEN 8
      &END MIXING
    &END SCF
  &END DFT
  &PRINT
    &FORCES ON
    &END FORCES
  &END PRINT
&END FORCE_EVAL
