&GLOBAL
  PROJECT H2O_bulk
  RUN_TYPE ENERGY_FORCE
  PRINT_LEVEL LOW
&END GLOBAL
&FORCE_EVAL
  METHOD Quickstep
  &SUBSYS
    &KIND H
      ELEMENT   H
      BASIS_SET DZVP-GTH-PBE
      POTENTIAL GTH-PBE-q1
    &END KIND
    &KIND O
      ELEMENT   O
      BASIS_SET DZVP-GTH-PBE
      POTENTIAL GTH-PBE-q6
    &END KIND
    &CELL
      A     46.937    0.000000000    0.000000000
      B     0.000000000    44.121    0.000000000
      C     0.000000000    0.000000000    45.182
    &END CELL
    &COORD

O 3.47025 3.20618 6.62997
H 2.70229 3.26476 7.25447
H 3.40166 4.00262 6.08527
O 4.71337 1.03771 43.9819
H 3.91493 1.43589 43.5357
H 5.04703 0.360334 43.3622
O 6.05395 2.82367 0.437293
H 5.82658 2.3377 1.2512
H 5.58441 2.2694 -0.251225
O 4.92445 5.35923 1.09908
H 5.66435 4.87863 0.698809
H 4.20626 4.72805 0.973221
O 2.99994 5.43856 4.83889
H 3.55436 6.04174 4.28722
H 2.12883 5.83991 4.77755
O 3.20412 5.44974 42.4514
H 3.27413 5.99547 43.2249
H 3.90335 5.79728 41.9196
O 2.86361 2.84789 42.8342
H 3.12054 3.83499 42.7113
H 2.31705 2.64607 42.0683
O 4.72328 7.00565 3.29622
H 5.51337 7.25572 3.69789
H 4.94113 6.46603 2.51387
O 7.94044 8.5181 42.0275
H 8.45171 7.71421 41.961
H 8.57169 9.18396 42.1809
O 5.08157 7.31549 41.198
H 5.91661 7.73715 41.4738
H 4.52301 8.08763 41.0776
O 1.19759 1.46383 22.4219
H 2.03467 45.9694 22.1593
H 1.47862 44.6973 22.5625
O 5.06625 0.889776 5.27238
H 4.14909 1.17662 5.46521
H 5.45637 1.74201 5.52797
O 5.86615 1.1355 2.40837
H 6.6844 1.05058 2.93463
H 5.30152 0.99719 3.1434
O 17.8012 42.4859 0.763077
H 18.5889 42.0573 1.0023
H 17.666 43.1316 1.51116
O 7.87608 6.99988 3.36611
H 8.58695 7.62631 3.14617
H 8.36634 6.31009 3.8245
O 3.47565 4.86886 15.5246
H 3.57562 5.55029 16.1037
H 2.58869 4.72143 15.5789
O 11.1271 42.0292 1.6524
H 11.9601 41.4712 1.50266
H 10.4534 41.5407 1.18052
O 10.9648 43.0406 43.2359
H 10.2511 42.3555 43.1865
H 11.6806 42.78 42.6432
O 14.7655 6.02567 3.91363
H 13.9013 5.87517 4.37493
H 14.9215 5.20041 3.46058
O 14.4041 3.04855 3.35623
H 13.7543 3.55449 3.92216
H 13.8362 2.68194 2.68313
O 11.5295 2.94797 6.81998
H 10.6242 2.93302 7.04149
H 11.8392 2.08593 7.18317
O 8.90779 2.85598 1.46501
H 9.45693 2.1102 1.25758
H 8.07822 2.63478 1.00032
O 15.5545 41.2805 -0.316447
H 16.3747 41.712 -0.012362
H 15.4942 41.5217 43.9783
O 15.6332 1.52808 5.37369
H 15.0959 1.86804 4.61358
H 16.0225 2.36787 5.6227
O 9.69112 4.51934 3.49853
H 9.55597 3.71535 4.05321
H 9.50098 4.19541 2.61348
O 13.1392 2.06223 1.24202
H 13.3864 2.31183 0.36365
H 12.4072 1.36923 1.06824
O 11.2745 0.372402 0.411626
H 11.1533 44.3455 44.6637
H 11.1905 43.6159 0.892448
O 13.3026 40.4462 1.35211
H 13.6538 40.1305 2.16697
H 14.0188 40.6701 0.723705
O 18.2318 0.156668 2.99473
H 18.4039 1.07761 2.73964
H 17.4868 0.166553 3.60425
O 15.1523 43.8365 7.58365
H 14.7713 43.1121 7.08049
H 15.4521 44.4077 6.86755
O 12.2612 4.52823 4.80326
H 11.9361 4.06342 5.62198
H 11.5228 4.61157 4.23182
O 12.2635 0.421124 7.98404
H 13.1922 44.3686 7.97918
H 11.9485 -0.220202 8.6254
O 18.3325 3.17867 2.58599
H 17.9291 3.74822 3.23496
H 18.237 3.58461 1.72251
O 15.9229 11.3621 4.57877
H 15.4525 11.2692 5.37247
H 15.7436 10.5567 4.01415
O 20.512 6.09697 3.03672
H 20.9822 5.80429 2.22526
H 19.5727 5.87948 3.0588
O 21.5293 6.79565 5.51481
H 21.5647 7.69442 5.2853
H 21.2415 6.43774 4.57271
O 20.6871 44.0648 9.02441
H 20.5256 43.1531 8.8356
H 21.4332 44.0767 9.64705
O 18.8472 6.44574 6.81424
H 19.0516 5.91899 7.55542
H 19.6897 6.86262 6.63968
O 16.5896 13.9638 3.20818
H 16.4997 13.1679 3.76888
H 17.5314 14.189 3.17249
O 23.0928 44.3028 10.394
H 23.663 0.524752 9.64983
H 22.9402 1.01617 10.887
O 19.9338 4.49619 8.73389
H 20.109 3.73267 8.15806
H 19.6294 4.22121 9.57885
O 17.8055 5.55419 4.38536
H 16.8249 5.55353 4.38298
H 18.0363 5.85175 5.27673
O 14.6753 9.1095 2.98098
H 14.3873 9.29835 2.08682
H 14.5516 8.14367 3.09542
O 14.5667 15.6877 4.2262
H 15.1724 15.0991 3.70688
H 14.4463 16.2762 3.47794
O 26.7579 43.2072 7.69361
H 27.4756 43.0046 8.26273
H 26.9377 42.6677 6.9158
O 24.9368 1.02019 8.52638
H 24.8617 1.81018 7.93425
H 25.7004 0.553293 8.13258
O 23.3045 6.17967 7.5746
H 22.8389 5.61606 8.2286
H 22.6114 6.29652 6.86052
O 20.6761 2.26022 7.17382
H 20.5129 2.21849 6.18676
H 20.7599 1.39363 7.50646
O 27.6588 41.2764 5.8824
H 27.5248 41.1281 4.93034
H 28.5402 40.935 5.93817
O 22.3257 7.85486 41.8014
H 22.9037 7.85877 40.9471
H 21.5927 8.47043 41.5512
O 21.056 9.69069 39.5555
H 20.1767 9.88782 39.2918
H 21.5743 10.3786 39.1389
O 33.5766 5.90356 3.16872
H 32.9784 5.6193 3.84272
H 33.3986 5.46833 2.35456
O 30.0085 4.25992 7.14075
H 30.4568 3.62437 7.74489
H 29.0936 4.05643 7.18063
O 31.7072 5.18199 5.11095
H 31.0042 4.50647 5.48699
H 31.6865 5.84576 5.78611
O 26.1751 40.6294 0.451701
H 25.3872 39.9469 45.4012
H 26.3957 41.0826 -0.318771
O 31.0691 2.61639 9.41073
H 30.4745 1.88306 9.60685
H 31.897 2.13876 9.43282
O 25.647 5.60225 6.26145
H 24.9193 5.95103 6.75398
H 25.5397 5.90693 5.34437
O 22.1673 5.3657 0.804248
H 21.6497 4.89703 0.183451
H 22.3926 6.2173 0.35348
O 23.275 7.39751 44.3909
H 23.4802 8.21089 44.7234
H 22.9724 7.60436 43.5399
O 27.3975 40.5673 3.27867
H 27.0128 39.7094 3.08468
H 27.1327 41.1136 2.54139
O 26.8673 44.0055 1.77461
H 27.0256 0.787475 1.68959
H 25.9144 -0.0972203 1.5468
O 24.8262 18.6719 45.2714
H 23.9645 19.0501 45.0862
H 25.3642 19.1968 44.6612
O 35.4535 7.4787 2.12332
H 34.7716 7.03044 2.70269
H 36.3435 7.33003 2.42726
O 27.2852 3.77811 7.62842
H 26.6872 4.22729 6.99256
H 26.9293 3.96773 8.48623
    
    &END COORD
  &END SUBSYS
  &DFT
    BASIS_SET_FILE_NAME  BASIS_SET
    POTENTIAL_FILE_NAME  GTH_POTENTIALS
    &QS
      EPS_DEFAULT 1.0E-10
    &END QS
    &MGRID
      NGRIDS 4
      CUTOFF 135
      REL_CUTOFF 115
    &END MGRID
    &XC
      &XC_FUNCTIONAL PADE
      &END XC_FUNCTIONAL
    &END XC
    &SCF
      SCF_GUESS ATOMIC
      EPS_SCF 1.0E-7
      MAX_SCF 300
      &DIAGONALIZATION  ON
        ALGORITHM STANDARD
      &END DIAGONALIZATION
      &MIXING  T
        METHOD BROYDEN_MIXING
        ALPHA 0.4
        NBROYDEN 8
      &END MIXING
    &END SCF
  &END DFT
  &PRINT
    &FORCES ON
    &END FORCES
  &END PRINT
&END FORCE_EVAL
