&GLOBAL
  PROJECT H2O_bulk
  RUN_TYPE ENERGY_FORCE
  PRINT_LEVEL LOW
&END GLOBAL
&FORCE_EVAL
  METHOD Quickstep
  &SUBSYS
    &KIND H
      ELEMENT   H
      BASIS_SET DZVP-GTH-PBE
      POTENTIAL GTH-PBE-q1
    &END KIND
    &KIND O
      ELEMENT   O
      BASIS_SET DZVP-GTH-PBE
      POTENTIAL GTH-PBE-q6
    &END KIND
    &CELL
      A     46.937    0.000000000    0.000000000
      B     0.000000000    44.121    0.000000000
      C     0.000000000    0.000000000    45.182
    &END CELL
    &COORD

O 1.36379 0.68648 45.1726
H 1.422 1.51646 44.7034
H 0.823438 1.0672 0.759796
O 5.10902 4.34532 44.807
H 4.97287 5.04899 44.1837
H 5.55626 3.61947 44.3434
O 5.01876 3.64086 2.25575
H 5.35419 2.73907 2.01058
H 5.05673 4.18332 1.45042
O 3.0627 4.42678 4.43617
H 3.49633 4.31024 5.23514
H 3.57126 4.13453 3.67161
O 46.7003 1.56147 2.03895
H 0.0428781 2.21543 2.69417
H 46.2741 0.900419 2.53583
O 2.95333 7.62009 4.98019
H 2.73625 6.68328 4.90357
H 2.1946 8.09043 5.3179
O 5.87237 2.08849 42.8377
H 5.32314 1.9873 42.0898
H 6.74207 2.20388 42.3893
O 0.558516 3.14585 4.13678
H 1.43018 3.65671 4.32368
H 46.9131 3.70616 4.72109
O 2.38653 8.54392 2.17646
H 2.69103 8.13353 3.00069
H 1.47391 8.27499 2.02888
O 1.05861 9.41476 6.05599
H 47.034 9.39949 6.05853
H 1.35064 10.3199 6.15395
O 33.5358 19.1742 37.9502
H 34.466 19.1124 37.7672
H 33.2588 18.2728 37.8213
O 3.93514 43.8278 0.310049
H 3.78103 42.8933 0.204826
H 3.04085 0.103027 0.252534
O 6.04973 1.27792 1.04366
H 6.67171 1.40596 0.333684
H 5.2945 0.717905 0.875705
O 13.0097 42.8633 8.80768
H 13.4145 42.1929 9.37265
H 13.7611 43.2652 8.38553
O 4.5259 4.81827 6.91244
H 5.1717 4.36596 7.4306
H 4.96647 5.64048 6.77677
O 40.7541 33.5582 23.0803
H 40.2185 33.4986 22.3872
H 40.667 32.6808 23.4438
O 9.74393 0.644969 3.24099
H 9.0443 0.0500405 2.90234
H 10.5326 0.0961386 3.10206
O 9.46828 6.55237 43.2951
H 9.11396 7.44365 43.2991
H 9.25045 6.07324 42.4745
O 14.763 5.01584 5.93711
H 14.6482 5.88928 6.26132
H 13.9726 4.91304 5.35376
O 12.0369 4.21382 4.964
H 11.4843 4.6962 5.49674
H 11.4233 4.00758 4.19077
O 9.71727 2.44696 7.02292
H 9.59559 1.91176 6.21687
H 9.39167 1.96274 7.78606
O 6.69189 4.30931 4.31765
H 7.55449 4.09651 3.91337
H 5.99334 4.14825 3.6313
O 13.5671 42.944 5.70126
H 12.9886 42.6734 6.43166
H 14.061 43.6823 6.11875
O 12.9885 2.67263 8.02447
H 12.0761 2.62569 7.76476
H 13.1974 3.59344 7.8701
O 7.54226 4.15267 7.11881
H 8.1111 3.37428 7.0961
H 7.07513 4.1752 6.30345
O 9.50821 3.57255 3.05223
H 9.42219 2.6371 2.80007
H 9.78885 4.09825 2.23178
O 10.3321 5.40231 0.922861
H 10.5581 6.299 1.07123
H 9.70991 5.3564 45.3434
O 12.1923 43.6177 3.38952
H 12.8093 43.4442 2.66121
H 12.6918 43.3349 4.18759
O 15.2282 0.601977 7.2603
H 16.1562 0.720934 7.0997
H 14.9297 1.50971 7.26577
O 11.7526 1.60879 10.5228
H 11.9436 0.735172 10.1924
H 12.2504 2.09375 9.89154
O 9.88767 5.80969 6.47712
H 9.75527 6.6246 6.94501
H 9.17378 5.21253 6.81889
O 8.88997 1.53799 9.5832
H 9.72388 1.69146 10.0903
H 8.16139 1.77389 10.1842
O 18.0115 0.896499 6.92165
H 18.3615 1.75527 6.55472
H 18.6196 0.189999 6.66105
O 20.097 5.02656 -0.0567314
H 20.7475 4.99977 0.685589
H 19.2879 5.16581 0.416311
O 22.2451 4.75138 2.41975
H 23.0156 4.67011 1.84272
H 22.2264 5.57299 2.87227
O 22.0888 2.66931 4.65392
H 22.2273 3.04248 3.76507
H 22.584 1.83361 4.73331
O 20.6497 43.4708 6.91507
H 21.2703 43.9717 6.36069
H 20.7087 42.5333 6.67599
O 19.4436 3.2423 5.79366
H 19.9232 3.35832 6.61813
H 20.1348 2.99345 5.11434
O 20.0367 6.21334 42.5192
H 19.0812 6.27914 42.5303
H 20.2683 5.741 43.3074
O 23.3734 0.209047 5.32687
H 24.1123 0.380408 5.95495
H 23.6786 43.8889 4.47784
O 20.7187 3.59081 8.16793
H 20.7622 2.70932 8.64385
H 20.3409 4.25406 8.72716
O 17.1108 4.37172 4.23061
H 16.3722 4.60637 4.81622
H 17.8649 4.3318 4.80776
O 17.7217 5.43018 1.58058
H 16.9709 5.06353 1.11468
H 17.6592 4.98895 2.45226
O 21.1972 7.3512 40.0896
H 21.0815 7.10915 41.0289
H 21.1638 8.29696 40.2017
O 24.8263 43.601 3.26523
H 25.7258 43.8856 3.52924
H 24.7371 44.0521 2.42809
O 24.9333 0.615125 7.66684
H 25.5156 1.32611 8.04521
H 24.2913 0.689427 8.27726
O 23.2008 4.43673 6.90377
H 22.4427 4.26288 7.44283
H 23.1244 3.85033 6.14785
O 21.055 1.06978 9.1555
H 21.1131 0.564114 10.0389
H 20.9206 0.371104 8.52202
O 27.4905 0.758922 3.56421
H 28.3186 0.527969 3.22008
H 27.8075 1.30632 4.32124
O 27.623 8.07251 1.32597
H 28.224 8.20194 2.06577
H 27.8812 8.72658 0.695207
O 28.7567 9.40689 43.9831
H 28.4999 8.90058 43.1734
H 29.3066 10.1296 43.5354
O 29.6879 7.03244 7.61454
H 30.5094 6.50158 7.60286
H 29.0701 6.565 7.00545
O 28.3777 2.6613 6.52987
H 29.347 2.62499 6.54165
H 27.9568 2.42829 7.38515
O 27.6779 5.43803 6.10187
H 27.8054 4.49138 6.18656
H 27.6016 5.4911 5.11122
O 29.7477 41.7295 0.381914
H 29.0865 41.3747 -0.228858
H 29.6322 41.072 1.00999
O 31.2034 2.16167 6.30781
H 31.6937 2.83432 5.85314
H 31.8169 1.75927 6.94009
O 25.4976 5.17942 7.80575
H 24.6077 4.87326 7.46244
H 26.0032 5.54005 7.08313
O 24.1131 4.32903 0.287155
H 23.9754 3.67651 -0.425723
H 24.7096 5.02898 0.0137045
O 26.053 6.17989 45.2604
H 26.4041 6.82537 44.6098
H 26.4133 6.70526 45.9996
O 30.0363 43.9681 2.23606
H 30.6031 -0.721294 2.85096
H 29.6422 43.3645 1.55055
O 27.24 40.6007 44.3572
H 26.3709 40.7311 44.6642
H 27.2638 39.6749 44.1396
O 36.5812 34.4948 22.4132
H 36.9123 33.9673 21.6809
H 35.66 34.4769 22.206
O 30.0108 9.59649 8.98452
H 29.7597 8.74801 8.63506
H 29.2474 10.0137 9.14974
O 26.49 2.88967 8.69484
H 26.1202 3.83096 8.33139
H 26.7399 3.15568 9.57261
    
    &END COORD
  &END SUBSYS
  &DFT
    BASIS_SET_FILE_NAME  BASIS_SET
    POTENTIAL_FILE_NAME  GTH_POTENTIALS
    &QS
      EPS_DEFAULT 1.0E-10
    &END QS
    &MGRID
      NGRIDS 4
      CUTOFF 135
      REL_CUTOFF 115
    &END MGRID
    &XC
      &XC_FUNCTIONAL PADE
      &END XC_FUNCTIONAL
    &END XC
    &SCF
      SCF_GUESS ATOMIC
      EPS_SCF 1.0E-7
      MAX_SCF 300
      &DIAGONALIZATION  ON
        ALGORITHM STANDARD
      &END DIAGONALIZATION
      &MIXING  T
        METHOD BROYDEN_MIXING
        ALPHA 0.4
        NBROYDEN 8
      &END MIXING
    &END SCF
  &END DFT
  &PRINT
    &FORCES ON
    &END FORCES
  &END PRINT
&END FORCE_EVAL
