&GLOBAL
  PROJECT H2O_bulk
  RUN_TYPE ENERGY_FORCE
  PRINT_LEVEL LOW
&END GLOBAL
&FORCE_EVAL
  METHOD Quickstep
  &SUBSYS
    &KIND H
      ELEMENT   H
      BASIS_SET DZVP-GTH-PBE
      POTENTIAL GTH-PBE-q1
    &END KIND
    &KIND O
      ELEMENT   O
      BASIS_SET DZVP-GTH-PBE
      POTENTIAL GTH-PBE-q6
    &END KIND
    &CELL
      A     46.937    0.000000000    0.000000000
      B     0.000000000    44.121    0.000000000
      C     0.000000000    0.000000000    45.182
    &END CELL
    &COORD

O 3.39927 3.08758 7.00269
H 2.61851 3.51405 6.68489
H 4.01481 3.8114 6.84731
O 5.51732 1.07433 43.7311
H 5.02312 1.64912 43.1339
H 6.04018 0.568415 43.166
O 5.83463 2.12893 0.962778
H 5.32551 1.401 1.45651
H 5.82289 1.9378 45.1458
O 4.65531 4.56962 1.27441
H 5.22752 3.76254 1.24229
H 4.08394 4.48352 0.505664
O 5.21882 5.09152 6.11562
H 5.3386 5.28297 5.16582
H 5.78665 5.78833 6.53137
O 4.16523 4.99175 39.9643
H 3.70517 5.79058 40.2264
H 4.87286 5.1927 39.2852
O 4.08935 3.05586 41.8318
H 4.2211 3.77841 41.2655
H 3.39452 2.5271 41.4137
O 5.33956 6.2197 3.65707
H 6.21697 6.51998 3.43695
H 5.05484 5.669 2.93218
O 7.98486 7.31159 39.3613
H 8.31465 6.81845 40.0876
H 8.78318 7.70725 39.0448
O 6.22463 5.40896 37.8523
H 6.75709 6.21776 37.8936
H 6.90356 4.77726 37.5602
O 40.2507 7.78957 18.7952
H 40.9563 8.33601 18.5707
H 40.6546 6.89886 18.7585
O 3.4921 1.03452 4.91899
H 3.78291 1.79566 5.44617
H 3.1898 0.421427 5.61124
O 4.91997 0.246221 2.58276
H 5.40164 43.5904 2.89922
H 4.44973 0.477222 3.40283
O 17.6823 41.4427 42.7664
H 17.2567 41.463 41.8773
H 17.9169 42.3876 42.8842
O 8.34098 7.00666 4.26594
H 8.58485 7.93944 4.46006
H 9.08011 6.69746 3.73746
O 6.1383 0.0862984 25.8249
H 5.99095 0.755011 25.1857
H 5.84409 -0.656976 25.3722
O 11.6256 42.6114 1.04893
H 12.2588 41.9721 0.700522
H 10.9566 42.2473 1.63662
O 10.43 2.07609 42.6733
H 10.9496 2.57844 42.0237
H 9.69807 2.73649 42.8239
O 13.5736 6.38787 4.34502
H 12.826 5.84543 4.62637
H 14.0564 5.8848 3.73014
O 14.3158 3.31766 3.21826
H 13.6825 3.30698 3.92318
H 13.9074 3.02051 2.41976
O 13.2338 3.63177 8.1669
H 12.7541 4.18879 8.74534
H 14.1487 3.97934 8.20007
O 8.54862 1.61215 2.16598
H 9.16525 1.76613 1.49193
H 7.70599 1.93383 1.83269
O 16.466 40.4714 45.1299
H 16.8793 40.9225 44.3746
H 17.1487 40.0052 0.486484
O 16.9327 3.14965 4.19704
H 16.1315 2.8782 3.79834
H 16.9317 4.11187 4.2263
O 9.59004 3.20585 4.37828
H 8.87542 3.06162 5.05835
H 9.27308 2.67164 3.59857
O 13.3676 2.97837 0.681638
H 13.2567 3.82895 45.4858
H 12.4952 2.57087 0.675293
O 11.0525 1.20901 0.270354
H 10.9512 1.3219 44.5145
H 11.2739 0.333109 0.462141
O 13.5325 40.8012 0.210954
H 13.3474 40.2217 44.6448
H 14.5043 40.8355 0.258641
O 17.2508 0.157418 43.4322
H 17.4537 0.35808 44.342
H 17.2478 0.975225 42.9607
O 17.5311 1.93108 6.67413
H 17.0039 1.13457 6.59528
H 17.5046 2.33033 5.73881
O 12.344 3.76757 5.42526
H 12.6354 3.51882 6.34291
H 11.522 3.27417 5.25531
O 15.8759 4.26224 7.72586
H 16.5656 3.56363 7.58438
H 16.1867 4.99733 7.19836
O 18.2812 0.895125 0.691798
H 18.1792 1.81014 0.927674
H 17.8955 0.491181 1.4526
O 11.9506 11.6119 4.25987
H 12.1523 10.6862 4.35147
H 11.2126 11.5525 3.69981
O 19.0408 7.96974 2.73741
H 19.3744 8.17107 1.86302
H 18.1615 7.54662 2.64022
O 20.8264 7.89988 4.88175
H 21.2683 8.61328 4.51731
H 20.1678 7.73881 4.24544
O 21.7296 0.169792 9.26976
H 22.4239 44.5843 9.86054
H 22.1879 -0.0232919 8.47819
O 18.2785 7.1749 6.68664
H 18.8134 6.56339 7.1889
H 18.9654 7.83741 6.43103
O 13.28 13.7822 5.54992
H 12.8278 13.2711 4.85656
H 13.0268 13.3079 6.35669
O 24.521 0.60328 10.1258
H 25.2597 0.576449 9.49015
H 24.9243 0.941079 10.9017
O 20.0066 5.04528 8.21204
H 20.1001 4.129 7.83758
H 19.8808 4.89957 9.13548
O 16.8596 6.14662 4.60524
H 16.1034 6.69378 4.77488
H 17.5393 6.43805 5.27337
O 13.1753 9.08919 4.91735
H 14.0929 9.40456 4.90667
H 13.2734 8.1653 4.64495
O 16.2456 14.7076 5.26425
H 15.5347 14.0845 5.33738
H 15.8175 15.4948 4.94024
O 28.9958 42.4399 7.72371
H 29.6867 42.7697 7.16845
H 28.7455 41.5228 7.4522
O 26.8467 0.313835 8.19638
H 26.8335 0.125514 7.21589
H 27.5722 43.8368 8.54734
O 22.6902 6.73325 6.45581
H 22.1702 6.12126 6.9794
H 22.0798 7.06081 5.80208
O 19.9448 2.29273 8.23842
H 19.183 1.86311 7.99802
H 20.4444 1.74128 8.86118
O 28.1948 39.7417 7.04564
H 28.1085 39.6687 6.10608
H 28.4522 38.9339 7.37539
O 22.0808 8.51766 40.971
H 22.688 7.78887 40.6016
H 21.2697 8.43182 40.4491
O 19.6952 7.68714 39.7007
H 19.7309 7.34 38.8097
H 19.0449 8.35341 39.493
O 33.6393 3.71514 3.87656
H 33.2031 4.06157 4.6878
H 33.3617 4.2713 3.15473
O 30.1902 4.81863 7.72253
H 30.6745 3.98353 7.89035
H 29.2599 4.69279 7.67393
O 31.966 5.2569 5.90427
H 31.052 5.16299 6.39129
H 31.8123 6.00859 5.28835
O 27.5433 41.915 2.13743
H 28.5342 42.2488 2.26018
H 27.4546 42.0353 1.24757
O 32.4692 3.23153 8.19644
H 32.946 3.91548 7.71806
H 33.0432 3.1485 8.96393
O 25.6715 6.18576 6.28076
H 24.713 6.3083 6.15638
H 26.087 6.57688 5.51823
O 19.7674 8.26403 -0.0932395
H 20.6245 8.51492 44.6413
H 19.1723 8.21496 44.3336
O 22.0637 9.31441 43.6751
H 22.9508 9.4965 43.9424
H 22.148 9.07071 42.6633
O 26.86 39.8442 4.27102
H 26.8358 40.4104 3.44217
H 26.3392 39.079 3.9785
O 29.0221 43.2189 45.0575
H 29.4028 42.6554 44.339
H 28.6762 -0.150275 44.6022
O 21.9332 14.9923 5.47461
H 21.4199 14.3685 5.9885
H 21.2444 15.5641 5.14388
O 36.7375 3.29498 3.98567
H 35.7761 3.35932 4.03316
H 36.8512 2.46066 4.28164
O 27.3883 4.35577 7.7099
H 26.7197 4.97713 7.3811
H 26.8193 3.52003 7.85174
    
    &END COORD
  &END SUBSYS
  &DFT
    BASIS_SET_FILE_NAME  BASIS_SET
    POTENTIAL_FILE_NAME  GTH_POTENTIALS
    &QS
      EPS_DEFAULT 1.0E-10
    &END QS
    &MGRID
      NGRIDS 4
      CUTOFF 135
      REL_CUTOFF 115
    &END MGRID
    &XC
      &XC_FUNCTIONAL PADE
      &END XC_FUNCTIONAL
    &END XC
    &SCF
      SCF_GUESS ATOMIC
      EPS_SCF 1.0E-7
      MAX_SCF 300
      &DIAGONALIZATION  ON
        ALGORITHM STANDARD
      &END DIAGONALIZATION
      &MIXING  T
        METHOD BROYDEN_MIXING
        ALPHA 0.4
        NBROYDEN 8
      &END MIXING
    &END SCF
  &END DFT
  &PRINT
    &FORCES ON
    &END FORCES
  &END PRINT
&END FORCE_EVAL
