&GLOBAL
  PROJECT H2O_bulk
  RUN_TYPE ENERGY_FORCE
  PRINT_LEVEL LOW
&END GLOBAL
&FORCE_EVAL
  METHOD Quickstep
  &SUBSYS
    &KIND H
      ELEMENT   H
      BASIS_SET DZVP-GTH-PBE
      POTENTIAL GTH-PBE-q1
    &END KIND
    &KIND O
      ELEMENT   O
      BASIS_SET DZVP-GTH-PBE
      POTENTIAL GTH-PBE-q6
    &END KIND
    &CELL
      A     46.937    0.000000000    0.000000000
      B     0.000000000    44.121    0.000000000
      C     0.000000000    0.000000000    45.182
    &END CELL
    &COORD

O 1.09813 43.602 0.626193
H 1.79339 43.0883 1.07212
H 0.755811 44.0447 1.43262
O 5.25696 4.56621 0.182616
H 4.8692 5.18932 44.7899
H 5.07263 3.69987 -0.243401
O 6.20691 5.33149 2.73692
H 6.98391 4.72642 2.89979
H 5.82958 5.03204 1.84774
O 4.60061 4.56951 4.73152
H 4.90905 4.65609 5.61233
H 5.34272 4.86648 4.07882
O 1.37775 0.961551 3.19027
H 2.18009 1.31885 3.69912
H 0.85948 0.596054 3.8874
O 1.63954 6.81089 6.26649
H 2.4756 6.42246 5.96668
H 0.939208 6.37518 5.75792
O 4.87009 1.14547 45.0726
H 3.95097 1.10262 44.6968
H 5.40301 0.520214 44.5953
O 3.79673 1.99152 4.61854
H 4.0781 2.93756 4.66887
H 3.68936 1.7545 5.53632
O 0.734673 9.59301 6.29061
H 0.993619 8.67877 6.3544
H 0.785882 9.89273 7.19047
O 46.2406 6.20166 4.95784
H 45.4146 5.85462 5.31727
H 46.0551 6.15976 4.01434
O 42.8783 11.5874 42.3733
H 43.3361 10.757 42.3949
H 41.9774 11.3334 42.6496
O 2.30318 1.33341 44.1972
H 2.04729 2.26057 44.2937
H 1.69662 0.790181 44.7785
O 5.67339 0.597614 2.86688
H 5.40346 0.746579 1.96236
H 5.00402 1.04887 3.36634
O 11.5436 43.229 12.5763
H 12.0219 42.8341 11.8724
H 10.6387 43.1849 12.2553
O 5.56459 4.23571 7.31296
H 6.52516 4.25215 7.37264
H 5.23548 4.38249 8.22292
O 44.9478 40.7053 14.2312
H 44.8596 40.8922 15.0871
H 44.3903 39.9272 14.1447
O 8.18878 1.34808 3.76608
H 7.31627 1.06616 3.33387
H 8.84229 0.848045 3.18335
O 12.2035 6.14129 44.3136
H 12.6362 5.71574 43.5715
H 12.2172 7.03587 44.0027
O 14.456 8.4631 6.24328
H 14.3722 9.40259 6.11747
H 13.5427 8.18935 6.19825
O 11.6233 7.97624 6.01577
H 11.1677 7.61918 6.83684
H 11.347 7.36009 5.40675
O 9.31025 1.84276 6.43149
H 8.95572 1.60065 5.53631
H 9.19003 1.12498 7.05712
O 9.20158 6.02503 5.06791
H 9.08835 5.34118 4.40101
H 8.51833 6.69358 4.93764
O 13.059 43.3755 2.59966
H 13.7215 43.261 1.92627
H 13.4962 -0.289015 3.32989
O 12.3255 1.25464 6.80634
H 11.4244 1.60025 6.55775
H 12.6821 2.00915 7.29025
O 8.29996 4.41968 7.27879
H 8.68847 3.54891 6.96647
H 8.56266 5.0313 6.56347
O 8.67826 4.09724 3.21934
H 8.46637 3.0863 3.3391
H 9.33004 4.24002 2.42222
O 10.1126 4.87366 0.981766
H 10.0239 5.28616 0.0998908
H 11.0779 5.00754 1.05005
O 10.1543 -0.0754094 2.02772
H 10.1806 -0.30145 1.0991
H 11.0819 -0.334008 2.31683
O 14.4647 0.408177 4.8383
H 15.3153 0.899627 4.94477
H 13.8059 0.664804 5.51164
O 11.5468 42.4129 8.9935
H 12.0494 41.7034 8.54176
H 12.0455 43.2069 8.73144
O 9.7385 7.35931 8.23261
H 9.71165 7.56316 9.1584
H 9.39699 6.45597 8.15591
O 9.09722 -0.290608 8.28702
H 9.65552 43.1227 8.65548
H 8.26073 43.7649 8.81072
O 16.7747 1.8216 5.53215
H 16.9425 2.71366 5.2554
H 17.5989 1.34897 5.55765
O 19.8544 3.33068 0.716749
H 20.6698 3.39913 1.20024
H 19.2406 3.86282 1.26398
O 22.4815 4.62623 2.14854
H 23.3903 4.43321 2.40985
H 22.3389 5.52235 1.86844
O 21.045 3.93212 4.85796
H 21.3276 4.19199 3.93816
H 21.2942 2.99777 4.88032
O 19.2911 0.432065 5.71725
H 20.2101 0.50609 5.38879
H 19.1497 43.6052 5.81597
O 18.2935 4.89365 5.87246
H 18.6468 4.9151 6.80273
H 19.1151 4.71033 5.39758
O 20.0056 2.35897 43.1857
H 20.5262 3.11335 43.0244
H 19.851 2.40758 44.1149
O 21.8967 0.946492 5.0302
H 22.4092 0.992414 5.87693
H 22.5575 0.894263 4.32545
O 19.7962 4.72204 8.63204
H 19.7365 3.77119 8.5981
H 19.8107 4.89442 9.57286
O 16.764 6.86757 4.28004
H 16.0449 7.28201 4.70661
H 17.2044 6.31028 4.93826
O 17.4632 5.00467 2.18682
H 16.749 5.12628 1.55657
H 17.3036 5.69802 2.86764
O 20.9334 44.0379 41.7267
H 20.7199 0.736532 42.1764
H 21.8767 44.1342 41.7385
O 23.9389 0.751049 3.00056
H 24.8581 0.915087 3.14443
H 23.7764 1.13652 2.14475
O 22.8084 0.725894 7.5499
H 23.6163 1.2719 7.90528
H 23.1373 -0.159853 7.7185
O 22.6221 5.49849 7.03193
H 21.9694 5.99294 7.54379
H 22.0574 5.04731 6.35213
O 19.6347 1.74956 8.15347
H 20.5089 1.33598 8.37233
H 19.4382 1.37314 7.28234
O 26.6219 1.49326 3.29707
H 27.4198 1.10596 2.82036
H 26.9627 1.59407 4.26327
O 29.1167 6.55474 44.4892
H 29.4568 7.19579 43.94
H 29.6674 5.72655 44.3141
O 30.1266 7.90798 2.56647
H 30.0285 7.53115 1.67845
H 30.954 7.52773 2.92227
O 29.5385 7.51429 7.45019
H 29.2153 8.37777 7.25949
H 28.8179 6.91014 7.18835
O 27.3179 1.74217 6.23247
H 28.2159 1.53846 6.57198
H 26.8269 1.91286 6.98382
O 27.2574 5.75249 6.16254
H 27.3227 4.81809 5.88274
H 26.9462 6.17484 5.40248
O 30.0109 42.1855 45.345
H 30.8646 42.0104 -0.202691
H 30.0159 41.6683 46.1807
O 30.0471 1.54574 7.24494
H 30.7104 2.21176 7.33975
H 30.505 0.708207 7.34982
O 25.1357 5.16041 8.03387
H 24.2435 5.17381 7.63194
H 25.7477 5.61423 7.47628
O 25.1415 4.49596 2.65842
H 25.5008 3.62817 2.77807
H 25.5672 4.84624 1.89411
O 26.356 5.67651 0.538807
H 26.2033 5.84839 44.8126
H 27.2373 6.01562 0.664131
O 28.5665 0.315382 1.21134
H 28.2455 0.681153 0.356564
H 28.9111 43.6074 0.825164
O 32.7457 41.076 43.5989
H 33.3434 41.5811 42.9736
H 33.348 40.4718 43.9565
O 33.0261 40.6611 13.9828
H 32.8282 39.7357 13.7227
H 32.1619 41.0841 13.9202
O 31.9331 7.00044 9.57455
H 31.2015 7.22032 9.03943
H 32.0339 7.75408 10.1623
O 25.3113 2.51368 8.63308
H 25.243 3.38378 8.45748
H 25.8036 2.34709 9.43738
    
    &END COORD
  &END SUBSYS
  &DFT
    BASIS_SET_FILE_NAME  BASIS_SET
    POTENTIAL_FILE_NAME  GTH_POTENTIALS
    &QS
      EPS_DEFAULT 1.0E-10
    &END QS
    &MGRID
      NGRIDS 4
      CUTOFF 135
      REL_CUTOFF 115
    &END MGRID
    &XC
      &XC_FUNCTIONAL PADE
      &END XC_FUNCTIONAL
    &END XC
    &SCF
      SCF_GUESS ATOMIC
      EPS_SCF 1.0E-7
      MAX_SCF 300
      &DIAGONALIZATION  ON
        ALGORITHM STANDARD
      &END DIAGONALIZATION
      &MIXING  T
        METHOD BROYDEN_MIXING
        ALPHA 0.4
        NBROYDEN 8
      &END MIXING
    &END SCF
  &END DFT
  &PRINT
    &FORCES ON
    &END FORCES
  &END PRINT
&END FORCE_EVAL
