&GLOBAL
  PROJECT H2O_bulk
  RUN_TYPE ENERGY_FORCE
  PRINT_LEVEL LOW
&END GLOBAL
&FORCE_EVAL
  METHOD Quickstep
  &SUBSYS
    &KIND H
      ELEMENT   H
      BASIS_SET DZVP-GTH-PBE
      POTENTIAL GTH-PBE-q1
    &END KIND
    &KIND O
      ELEMENT   O
      BASIS_SET DZVP-GTH-PBE
      POTENTIAL GTH-PBE-q6
    &END KIND
    &CELL
      A     46.937    0.000000000    0.000000000
      B     0.000000000    44.121    0.000000000
      C     0.000000000    0.000000000    45.182
    &END CELL
    &COORD

O 3.51208 3.03449 6.45531
H 3.64605 3.23089 7.37181
H 3.60339 3.86253 5.96614
O 4.91881 1.30914 44.1463
H 4.28981 1.91245 43.6477
H 5.26018 0.674757 43.5162
O 6.61299 2.87411 0.447804
H 6.24376 2.23047 1.1048
H 6.16524 2.43482 44.8494
O 4.4692 5.17966 0.833476
H 5.3744 4.8814 0.63883
H 4.02616 4.46562 0.377656
O 3.38082 5.74665 5.17323
H 3.87406 6.34834 4.56282
H 2.58709 6.203 5.3998
O 3.14834 5.3175 42.1028
H 2.95048 6.07545 42.6908
H 3.93491 5.68336 41.589
O 2.98987 2.76015 42.8334
H 3.14957 3.69944 42.5299
H 2.02158 2.67282 42.6985
O 4.83851 7.16284 3.17492
H 5.81309 6.93142 3.27855
H 4.47259 6.70407 2.33961
O 8.12074 8.33194 41.6456
H 8.58792 8.78392 42.4176
H 8.08124 9.06627 41.0096
O 5.24307 7.14005 41.1324
H 6.06436 7.25977 41.6072
H 5.37208 7.80601 40.4655
O 0.321179 2.13725 21.9936
H 0.766974 2.97701 22.0994
H 1.05177 1.52802 21.9209
O 5.0627 1.0597 5.16979
H 4.10754 1.24487 4.97957
H 5.05044 1.5441 6.02833
O 5.78716 0.778779 2.57269
H 5.92932 -0.0905935 2.14404
H 6.01188 0.591849 3.50385
O 17.5458 42.6758 0.216367
H 18.4672 42.6899 0.10235
H 17.552 43.2389 1.01121
O 7.45514 6.82908 3.67985
H 7.83715 7.71584 3.66276
H 8.19141 6.20498 3.71446
O 3.78149 4.38466 16.7017
H 2.87589 4.62247 16.3727
H 3.5648 3.62199 17.353
O 11.0209 42.1309 1.54018
H 11.8681 41.6515 1.33781
H 11.0059 42.1317 2.49479
O 10.9897 42.8177 43.1301
H 10.1682 43.1378 42.785
H 11.5699 42.6961 42.4103
O 14.7104 6.25845 3.75123
H 14.1477 5.74976 4.2928
H 14.562 5.91834 2.85404
O 14.3104 3.02215 3.42072
H 13.4819 3.17381 3.86351
H 14.0318 2.67087 2.58478
O 11.6698 2.97185 7.34697
H 11.1381 3.24023 8.07364
H 12.024 2.11149 7.64087
O 9.13986 2.96357 1.26679
H 9.79528 2.2557 1.10931
H 8.31688 2.75841 0.753912
O 15.4531 40.9275 44.9013
H 16.2035 41.4661 0.0777782
H 15.5188 41.0416 43.974
O 15.9585 1.91325 5.47163
H 15.293 2.10172 4.78007
H 16.5931 2.60525 5.27636
O 9.37819 4.70455 3.50799
H 9.30932 3.96361 4.16829
H 9.28648 4.25673 2.67451
O 13.3357 2.06447 0.85246
H 13.9386 1.73915 0.238196
H 12.5618 1.57524 0.658851
O 10.9339 0.511701 0.319739
H 10.9599 0.102323 44.6309
H 10.8614 43.8292 0.921565
O 13.3515 40.3304 1.13426
H 13.0817 39.4592 0.901688
H 14.1601 40.5531 0.656202
O 18.7541 44.0984 2.41681
H 18.789 0.932309 2.45485
H 19.0612 43.7406 3.25139
O 15.3489 44.2559 7.62782
H 15.615 44.5455 8.50175
H 15.7811 0.790331 7.02272
O 12.684 4.60237 4.94283
H 12.5304 4.30461 5.85662
H 11.7937 4.57822 4.52869
O 12.72 0.564934 8.33494
H 13.6441 0.538 7.92751
H 12.4668 43.8188 7.99389
O 18.3052 3.02076 2.39215
H 18.1055 3.82272 2.96989
H 17.6345 3.05182 1.76895
O 15.5753 11.1503 4.33389
H 15.1924 10.868 5.12795
H 15.2809 10.4993 3.71008
O 20.2594 6.46116 3.06818
H 20.6895 6.03988 2.28648
H 19.4286 6.02493 3.1241
O 21.2004 6.85008 5.40953
H 21.3469 7.7739 5.20969
H 21.0846 6.57946 4.48316
O 20.6435 44.0201 8.8306
H 19.8089 43.8125 9.23102
H 21.2647 44.2932 9.54843
O 18.5541 6.32614 6.52455
H 18.9729 5.7441 7.20139
H 19.356 6.60283 6.05685
O 16.4065 13.6538 3.82616
H 16.1505 12.727 3.94798
H 17.2922 13.7002 4.21588
O 23.1083 0.471579 10.4822
H 23.8215 0.477731 9.84803
H 23.6276 0.526906 11.3022
O 20.1582 4.8631 8.40407
H 20.3219 3.94768 8.29637
H 19.8098 4.91278 9.28456
O 17.6021 5.44207 4.09409
H 16.7212 5.87432 4.01016
H 17.8952 5.61634 4.98158
O 13.9735 9.01293 3.59174
H 13.4344 9.24424 2.8438
H 14.2344 8.09064 3.526
O 14.527 15.9642 4.10248
H 15.2758 15.3989 4.04068
H 14.5152 16.5321 3.34384
O 27.1266 43.3457 7.65002
H 27.2262 42.4993 8.05868
H 27.3822 43.1071 6.73669
O 25.1463 1.08229 8.25781
H 25.8184 1.76371 8.44082
H 25.671 0.373371 7.89995
O 23.1601 5.84112 7.48333
H 22.5617 5.27927 8.03098
H 22.5856 6.16823 6.79299
O 20.3639 2.22058 7.45646
H 20.376 2.19643 6.46144
H 20.2942 1.31052 7.83522
O 27.7683 41.2112 5.95223
H 27.4448 40.8329 5.10206
H 28.7095 41.2521 5.77348
O 22.2822 8.14568 41.7391
H 22.8801 8.29945 40.9724
H 21.4437 8.52035 41.4262
O 21.0204 9.28937 39.7144
H 20.2343 8.93773 39.3052
H 20.9908 10.1577 39.2595
O 33.5059 5.59159 3.1966
H 33.0289 5.51601 4.09822
H 32.8264 5.24436 2.61442
O 30.2439 4.10922 7.21371
H 30.2795 3.57028 8.02747
H 29.2595 4.26575 7.15809
O 31.7156 5.23718 5.17683
H 31.5372 4.58482 5.92451
H 31.2312 5.99303 5.46608
O 26.352 40.6339 0.697956
H 25.546 40.9652 0.439622
H 26.9657 41.1459 45.3188
O 31.0004 2.54302 9.34901
H 30.4452 1.9093 9.83171
H 31.8425 2.59619 9.7682
O 25.784 5.63197 6.39893
H 24.9394 5.56911 6.89496
H 25.57 5.38727 5.46888
O 21.8661 5.72595 0.934008
H 22.6911 5.95536 1.23931
H 21.7947 6.30034 0.146154
O 23.0266 7.56799 44.3225
H 23.8788 7.904 44.1829
H 22.6208 7.76795 43.4209
O 27.2181 40.5512 3.18807
H 26.9929 39.8091 2.66949
H 26.7305 41.2617 2.78913
O 27.0564 43.736 1.77635
H 27.5064 -0.527548 2.60146
H 27.152 0.568982 1.55396
O 24.4977 18.3286 0.595191
H 24.7949 17.5125 1.06263
H 23.8173 18.6694 46.4309
O 35.9464 7.21116 2.15204
H 35.2189 6.67767 2.52993
H 36.7791 6.99843 2.5161
O 27.4798 3.81071 7.54593
H 26.9826 4.47622 7.05792
H 27.5222 4.13398 8.38357
    
    &END COORD
  &END SUBSYS
  &DFT
    BASIS_SET_FILE_NAME  BASIS_SET
    POTENTIAL_FILE_NAME  GTH_POTENTIALS
    &QS
      EPS_DEFAULT 1.0E-10
    &END QS
    &MGRID
      NGRIDS 4
      CUTOFF 135
      REL_CUTOFF 115
    &END MGRID
    &XC
      &XC_FUNCTIONAL PADE
      &END XC_FUNCTIONAL
    &END XC
    &SCF
      SCF_GUESS ATOMIC
      EPS_SCF 1.0E-7
      MAX_SCF 300
      &DIAGONALIZATION  ON
        ALGORITHM STANDARD
      &END DIAGONALIZATION
      &MIXING  T
        METHOD BROYDEN_MIXING
        ALPHA 0.4
        NBROYDEN 8
      &END MIXING
    &END SCF
  &END DFT
  &PRINT
    &FORCES ON
    &END FORCES
  &END PRINT
&END FORCE_EVAL
