&GLOBAL
  PROJECT H2O_bulk
  RUN_TYPE ENERGY_FORCE
  PRINT_LEVEL LOW
&END GLOBAL
&FORCE_EVAL
  METHOD Quickstep
  &SUBSYS
    &KIND H
      ELEMENT   H
      BASIS_SET DZVP-GTH-PBE
      POTENTIAL GTH-PBE-q1
    &END KIND
    &KIND O
      ELEMENT   O
      BASIS_SET DZVP-GTH-PBE
      POTENTIAL GTH-PBE-q6
    &END KIND
    &CELL
      A     46.937    0.000000000    0.000000000
      B     0.000000000    44.121    0.000000000
      C     0.000000000    0.000000000    45.182
    &END CELL
    &COORD

O 1.3506 43.6089 0.70831
H 0.705791 43.001 0.547314
H 1.1043 44.2218 1.43487
O 4.79692 4.70172 0.147481
H 5.37184 4.93763 44.6304
H 5.0085 3.76243 0.26337
O 5.72099 5.64546 3.10344
H 6.49882 5.13149 2.99762
H 5.25356 5.48764 2.32329
O 3.77983 4.55562 4.87381
H 4.24561 4.31095 5.68148
H 4.51061 5.09302 4.33905
O 0.62095 1.19799 2.94759
H 1.44494 1.67551 3.30892
H -0.160249 1.58067 3.3433
O 1.7558 7.16098 5.24529
H 2.37294 6.43331 5.28833
H 0.920953 6.7521 5.42101
O 5.11385 1.96883 0.130817
H 4.17922 1.71595 44.9568
H 5.72432 1.59072 44.6857
O 3.2125 1.93959 3.98954
H 3.36445 2.95621 4.12948
H 3.07705 1.56185 4.90968
O 1.45518 10.1497 5.60316
H 1.64751 9.2007 5.49811
H 2.22792 10.6532 5.3635
O 45.6979 6.12131 5.45992
H 45.1991 5.68161 6.14939
H 45.0603 6.68148 5.03774
O 41.3204 12.7997 41.7068
H 42.1622 12.8823 41.3306
H 41.0602 11.9078 41.4139
O 2.73352 1.18433 44.1122
H 2.04011 1.69516 43.7164
H 2.28461 0.41575 44.4645
O 6.11789 0.391698 2.63821
H 5.71546 0.72531 1.87719
H 5.4152 0.4098 3.24996
O 13.0056 43.2021 12.0577
H 12.3301 42.8799 11.4891
H 12.526 43.4956 12.8296
O 5.12517 3.57545 7.29495
H 6.04472 3.81106 7.23453
H 5.16097 3.10883 8.10685
O 44.1058 39.5654 15.6755
H 44.8308 39.2247 15.1725
H 44.2408 39.1799 16.4817
O 8.53903 1.39792 3.62388
H 7.61738 1.02742 3.40864
H 9.16443 0.802832 3.05684
O 11.5468 6.37593 44.1662
H 12.4164 6.66253 43.9662
H 11.0068 6.84366 43.5628
O 14.5686 8.32547 5.94305
H 14.8309 9.10982 6.40872
H 13.6958 8.14764 6.24691
O 11.6465 8.04753 6.4999
H 10.9589 7.45424 6.88695
H 11.3914 8.15366 5.60228
O 9.60749 1.95 6.68332
H 9.42957 1.69384 5.774
H 9.07011 1.30093 7.17168
O 8.69995 6.40485 4.4396
H 8.81362 5.59649 3.92349
H 7.89398 6.77021 4.1002
O 12.7081 43.386 3.80514
H 13.3925 43.1646 3.17875
H 13.237 43.7276 4.55556
O 12.4405 1.57046 7.91386
H 11.5294 1.80247 7.55241
H 12.6886 2.38711 8.38969
O 8.1366 4.47888 6.52277
H 8.7996 3.76833 6.47451
H 8.28398 5.04061 5.77048
O 8.37492 4.19206 2.66767
H 8.53998 3.29372 2.96708
H 9.13919 4.37626 2.0229
O 10.433 4.42745 0.755118
H 10.4528 3.85905 -0.0210605
H 10.8515 5.27413 0.469496
O 10.361 43.6508 2.751
H 9.97398 42.794 2.70996
H 11.2107 43.6549 3.28734
O 14.0585 0.315407 5.94389
H 14.888 0.805106 5.97646
H 13.4816 0.807399 6.56642
O 11.3553 42.5525 8.96195
H 12.1553 42.0282 8.82111
H 11.6128 43.379 8.51119
O 9.34786 6.69231 7.71029
H 9.45863 6.63534 8.64822
H 8.92733 5.84334 7.46677
O 8.70311 43.4799 7.89994
H 9.48131 43.0724 8.2306
H 7.97761 42.9984 8.31529
O 16.5428 1.80707 6.26511
H 16.8189 2.71878 6.10076
H 17.3396 1.33726 6.01635
O 19.7494 3.61712 0.617449
H 20.4884 3.6864 1.22281
H 18.9472 3.8993 1.05273
O 22.2512 4.55011 2.33956
H 23.161 4.18557 2.29074
H 22.4681 5.37983 1.93056
O 21.0574 4.07552 4.90259
H 21.1939 4.3599 3.98319
H 21.5666 3.20634 5.01957
O 19.2972 0.525598 5.47081
H 20.1736 0.920418 5.10448
H 19.1953 43.8232 4.93625
O 18.2315 4.31917 5.87431
H 18.5611 4.47249 6.73642
H 19.0239 4.01152 5.38357
O 19.7513 2.90043 43.135
H 18.8399 2.76329 42.9698
H 19.8429 3.10486 44.0654
O 22.1819 1.42154 4.83474
H 22.6044 1.23122 5.64922
H 22.7163 1.12249 4.09918
O 20.0427 4.17951 7.90037
H 20.3937 3.27346 7.88248
H 19.8444 4.35501 8.80814
O 16.8546 6.7035 4.53885
H 16.1723 7.18608 4.98062
H 17.2491 6.16128 5.27769
O 17.3584 4.54369 2.31074
H 16.9049 3.74719 2.57446
H 17.1763 5.1899 2.98571
O 21.3634 1.09685 41.5903
H 21.0313 1.75653 42.1472
H 21.4523 0.297558 42.0802
O 24.2486 0.431193 3.00938
H 25.0993 0.850714 3.09234
H 24.4165 -0.471936 3.26039
O 23.4239 0.750027 7.76841
H 24.0678 1.40328 7.85075
H 23.8548 44.0157 8.06313
O 22.6132 5.56187 6.7734
H 21.9368 5.30957 7.44881
H 22.3423 5.10663 5.94729
O 20.9182 1.45862 8.20437
H 21.791 1.09953 8.2264
H 20.3796 0.996687 7.60471
O 26.8092 1.48531 3.15741
H 27.5749 0.894776 2.69305
H 27.2115 1.65436 3.98913
O 29.2088 7.29814 44.8202
H 29.1693 8.0681 44.2168
H 29.831 6.73268 44.509
O 30.3516 8.39279 2.0434
H 29.9094 8.08793 1.28927
H 29.8225 8.16494 2.77529
O 29.3172 8.09127 8.06559
H 29.2774 8.96581 7.7134
H 28.7772 7.57364 7.4533
O 27.9478 2.56584 6.28444
H 28.7332 2.18674 6.66461
H 27.3282 2.60185 7.06503
O 27.4795 5.11276 5.7813
H 27.7998 4.22739 6.06669
H 27.8173 5.25034 4.86505
O 30.5146 41.5951 0.30961
H 31.0407 41.1992 44.8269
H 30.4243 40.9232 1.03213
O 30.3725 1.33368 7.72323
H 31.1614 1.75084 8.02354
H 30.5464 0.383927 7.79316
O 25.0635 5.06134 7.75042
H 24.1586 5.32242 7.37853
H 25.6517 5.37169 7.02092
O 25.0802 4.26228 2.53575
H 25.6525 3.48124 2.76473
H 25.4559 4.55839 1.71513
O 26.494 5.52198 0.0636224
H 26.515 5.42031 44.2893
H 27.0668 6.29094 0.217
O 29.0386 -0.214223 1.64456
H 29.6697 43.2062 1.43212
H 29.0966 44.4886 0.911444
O 32.0922 40.8478 43.0015
H 31.6999 40.1973 42.4509
H 32.999 40.7415 42.7714
O 33.6184 39.5738 15.2832
H 32.9621 40.1673 15.6013
H 34.4058 39.887 15.7065
O 31.9583 7.30812 9.43762
H 31.2175 7.46171 8.84322
H 31.6501 7.84237 10.234
O 25.4306 2.55601 8.04657
H 25.2416 3.44465 7.92655
H 25.6082 2.5066 8.98974
    
    &END COORD
  &END SUBSYS
  &DFT
    BASIS_SET_FILE_NAME  BASIS_SET
    POTENTIAL_FILE_NAME  GTH_POTENTIALS
    &QS
      EPS_DEFAULT 1.0E-10
    &END QS
    &MGRID
      NGRIDS 4
      CUTOFF 135
      REL_CUTOFF 115
    &END MGRID
    &XC
      &XC_FUNCTIONAL PADE
      &END XC_FUNCTIONAL
    &END XC
    &SCF
      SCF_GUESS ATOMIC
      EPS_SCF 1.0E-7
      MAX_SCF 300
      &DIAGONALIZATION  ON
        ALGORITHM STANDARD
      &END DIAGONALIZATION
      &MIXING  T
        METHOD BROYDEN_MIXING
        ALPHA 0.4
        NBROYDEN 8
      &END MIXING
    &END SCF
  &END DFT
  &PRINT
    &FORCES ON
    &END FORCES
  &END PRINT
&END FORCE_EVAL
