&GLOBAL
  PROJECT H2O_bulk
  RUN_TYPE ENERGY_FORCE
  PRINT_LEVEL LOW
&END GLOBAL
&FORCE_EVAL
  METHOD Quickstep
  &SUBSYS
    &KIND H
      ELEMENT   H
      BASIS_SET DZVP-GTH-PBE
      POTENTIAL GTH-PBE-q1
    &END KIND
    &KIND O
      ELEMENT   O
      BASIS_SET DZVP-GTH-PBE
      POTENTIAL GTH-PBE-q6
    &END KIND
    &CELL
      A     46.937    0.000000000    0.000000000
      B     0.000000000    44.121    0.000000000
      C     0.000000000    0.000000000    45.182
    &END CELL
    &COORD

O 3.39403 3.25523 6.48029
H 3.73021 3.66253 7.33508
H 3.21805 3.90176 5.77605
O 4.54556 1.01014 43.6968
H 3.7479 1.35771 43.1994
H 5.11559 0.485953 43.0725
O 5.68705 2.48784 0.567372
H 5.53215 1.78601 1.26529
H 5.13658 2.332 -0.204639
O 5.37785 5.66195 1.05603
H 5.5858 6.15034 0.249677
H 5.64967 4.75284 0.823398
O 2.7048 5.10509 4.60271
H 3.35031 5.73315 4.22464
H 1.89041 5.58203 4.8762
O 3.39877 5.92833 43.0637
H 3.62589 5.8899 43.9927
H 3.82915 6.70684 42.6466
O 2.6029 2.70584 42.3904
H 3.0217 3.61308 42.2833
H 1.86918 2.78802 42.9546
O 4.84254 6.65247 3.65082
H 5.71617 6.90424 4.0643
H 5.0187 6.44354 2.76553
O 7.49848 8.35259 42.4772
H 8.15243 8.9832 42.1357
H 7.17599 8.71151 43.3558
O 4.94169 7.8606 41.4339
H 5.8841 7.91325 41.592
H 4.8037 7.41028 40.6214
O 2.5036 0.4823 23.026
H 3.13043 44.0807 22.4912
H 1.98561 43.8944 23.3656
O 4.69322 1.19311 5.4443
H 3.80961 0.982961 5.54966
H 4.84837 1.90311 6.02721
O 6.08023 1.12934 2.91188
H 6.97881 0.726659 2.90578
H 5.84982 1.22564 3.82383
O 18.0341 42.3438 1.62538
H 18.953 42.2404 1.73251
H 17.7652 43.1642 2.05863
O 8.12889 7.32154 3.03187
H 8.88384 7.86971 3.27124
H 8.53672 6.47362 2.96053
O 2.96428 5.67927 13.8585
H 3.23561 5.00968 14.5476
H 3.70172 6.29608 13.9288
O 11.1586 41.8755 1.75727
H 11.9384 41.3211 1.50916
H 10.6447 41.2651 2.28509
O 10.8921 43.2708 43.0575
H 10.0818 43.1592 42.6008
H 11.4417 43.7499 42.4679
O 15.1491 6.11725 3.91117
H 14.5832 6.13635 4.72578
H 15.128 5.19613 3.63274
O 14.3789 3.05045 3.6576
H 13.6054 3.54175 4.07012
H 14.0085 2.74392 2.85529
O 10.8749 2.84643 6.3938
H 10.8054 3.36475 7.17146
H 11.2379 1.96271 6.67006
O 8.6458 2.30853 1.43138
H 9.21288 1.83424 0.86489
H 7.81395 2.39335 0.952234
O 15.6875 41.7064 -0.105685
H 16.5542 41.9889 0.291299
H 15.8414 41.0521 44.4413
O 15.453 1.10582 5.30915
H 14.8342 1.787 4.92927
H 16.0123 1.58287 5.92934
O 9.49885 4.15449 3.47006
H 9.30251 3.58107 4.15726
H 9.49106 3.66419 2.64257
O 13.1525 2.34087 1.15553
H 13.2064 2.86207 0.352968
H 12.458 1.70286 1.08451
O 11.0327 0.365549 0.801429
H 10.9447 44.1474 45.0863
H 11.1206 43.7988 1.44049
O 13.5592 40.5935 1.71431
H 13.9555 40.1607 2.44723
H 14.3102 40.9109 1.1601
O 17.5659 0.524618 3.52782
H 17.8738 1.38952 3.26871
H 16.8333 0.551373 4.13424
O 14.2672 43.056 7.08675
H 14.7076 42.4446 7.67171
H 14.9407 43.5325 6.6019
O 12.1629 4.45292 4.60515
H 11.8657 3.98458 5.41347
H 11.3764 4.61739 4.07288
O 11.8623 0.328469 7.66965
H 12.3856 43.9102 7.06893
H 12.5579 0.561574 8.29817
O 18.2338 3.32974 3.08126
H 18.1124 3.96289 3.8469
H 17.766 3.7253 2.27032
O 16.4198 11.5889 4.20779
H 15.824 11.7187 4.88682
H 16.1983 10.7563 3.71175
O 21.2562 5.70576 3.12448
H 21.7385 5.67625 2.31886
H 20.4007 5.27857 2.96292
O 21.6962 7.32107 5.43925
H 21.7217 8.26289 5.17942
H 21.5051 6.84814 4.6257
O 20.6978 44.1201 8.98325
H 20.3285 43.249 8.78297
H 21.4714 43.9794 9.5938
O 19.1532 6.17537 7.03211
H 19.4088 5.47195 7.62174
H 19.905 6.77799 7.01439
O 16.5561 13.8628 2.80393
H 16.7485 13.1171 3.39957
H 17.3831 14.2224 2.46511
O 23.0438 44.0558 10.3868
H 23.8509 0.38002 10.0216
H 23.2418 -0.173798 11.3253
O 19.7729 4.15698 8.66221
H 20.0813 3.43636 8.09097
H 19.0434 3.93757 9.21853
O 18.1143 5.41214 4.71257
H 17.2236 5.66935 4.81192
H 18.5766 5.70194 5.54225
O 15.8923 9.25819 2.59368
H 15.5285 9.50222 1.756
H 15.7186 8.33618 2.66723
O 14.6634 15.4929 4.2496
H 15.3505 15.0646 3.76611
H 14.343 15.9319 3.47979
O 26.5007 42.8234 7.95935
H 27.029 42.3356 7.28182
H 25.757 42.2602 8.27889
O 24.9924 0.951619 8.70252
H 25.3473 1.87196 8.72303
H 25.7056 0.29312 8.51958
O 23.3113 6.56121 7.61347
H 22.7912 6.2849 8.35501
H 22.6636 6.68698 6.84866
O 20.896 2.30661 7.25109
H 20.593 2.10093 6.3597
H 21.0272 1.44847 7.72474
O 27.6184 41.3244 5.86258
H 27.6045 41.4357 4.85853
H 28.2684 40.6343 5.89087
O 22.3892 7.64624 41.6872
H 21.8146 7.0803 41.3137
H 22.3043 8.41263 41.1873
O 21.3058 10.038 39.6882
H 20.4394 10.0533 39.2456
H 21.8062 10.8121 39.4188
O 33.4041 5.93527 3.0068
H 32.643 5.70444 3.59428
H 33.5042 5.14118 2.48761
O 29.9311 4.11901 7.10364
H 30.5058 3.49542 7.63352
H 29.0096 3.85572 7.29728
O 31.4767 5.32935 5.25554
H 30.7655 4.69979 5.50615
H 31.4177 5.98819 5.85473
O 26.0625 40.7194 0.412361
H 25.8426 40.6932 44.6727
H 25.5512 41.5439 0.838128
O 31.2192 2.59224 9.35294
H 30.8137 2.55595 10.2073
H 32.0709 2.964 9.63577
O 25.5519 5.62629 6.23503
H 24.858 6.13581 6.68452
H 25.3474 5.59588 5.28497
O 22.184 4.97307 0.719734
H 22.0385 4.30168 0.0617692
H 22.5843 5.66636 0.233129
O 23.4061 7.18185 44.5065
H 24.1785 7.74936 44.6521
H 23.0689 7.49819 43.603
O 27.5044 40.6238 2.98481
H 26.6198 40.1976 2.85848
H 27.6754 41.0244 2.12824
O 26.3529 44.0705 1.49381
H 26.1697 0.774398 1.06057
H 26.5702 0.347489 2.37597
O 25.2759 19.3775 44.3119
H 26.0462 18.8988 44.5227
H 24.6307 18.901 44.7767
O 35.1207 8.14089 2.00198
H 34.4073 7.50593 2.1507
H 35.4582 8.33301 2.86913
O 27.0007 3.76936 7.794
H 26.5022 3.96724 7.01095
H 26.8449 4.62947 8.31643
    
    &END COORD
  &END SUBSYS
  &DFT
    BASIS_SET_FILE_NAME  BASIS_SET
    POTENTIAL_FILE_NAME  GTH_POTENTIALS
    &QS
      EPS_DEFAULT 1.0E-10
    &END QS
    &MGRID
      NGRIDS 4
      CUTOFF 135
      REL_CUTOFF 115
    &END MGRID
    &XC
      &XC_FUNCTIONAL PADE
      &END XC_FUNCTIONAL
    &END XC
    &SCF
      SCF_GUESS ATOMIC
      EPS_SCF 1.0E-7
      MAX_SCF 300
      &DIAGONALIZATION  ON
        ALGORITHM STANDARD
      &END DIAGONALIZATION
      &MIXING  T
        METHOD BROYDEN_MIXING
        ALPHA 0.4
        NBROYDEN 8
      &END MIXING
    &END SCF
  &END DFT
  &PRINT
    &FORCES ON
    &END FORCES
  &END PRINT
&END FORCE_EVAL
