&GLOBAL
  PROJECT H2O_bulk
  RUN_TYPE ENERGY_FORCE
  PRINT_LEVEL LOW
&END GLOBAL
&FORCE_EVAL
  METHOD Quickstep
  &SUBSYS
    &KIND H
      ELEMENT   H
      BASIS_SET DZVP-GTH-PBE
      POTENTIAL GTH-PBE-q1
    &END KIND
    &KIND O
      ELEMENT   O
      BASIS_SET DZVP-GTH-PBE
      POTENTIAL GTH-PBE-q6
    &END KIND
    &CELL
      A     46.937    0.000000000    0.000000000
      B     0.000000000    44.121    0.000000000
      C     0.000000000    0.000000000    45.182
    &END CELL
    &COORD

O 0.433272 43.763 0.592083
H 46.5813 43.2676 0.958167
H 0.341213 0.4829 1.07444
O 5.52001 4.35594 44.3741
H 4.91015 5.06212 44.2975
H 5.34046 3.81037 43.5642
O 5.18835 3.1802 1.78601
H 4.94341 2.25347 1.694
H 5.13706 3.50643 0.891462
O 3.6332 4.87981 4.33009
H 4.08052 4.54783 5.18485
H 4.08346 4.47178 3.6017
O 46.8059 1.94968 2.0042
H 0.330249 2.43572 2.81093
H 46.6981 2.72407 1.35146
O 3.17101 8.07251 3.72583
H 3.08388 7.1552 4.02396
H 3.17492 8.65603 4.43434
O 5.86782 2.49327 42.2779
H 5.70303 1.50268 42.221
H 6.11284 2.77118 41.405
O 1.16364 3.39185 4.13395
H 1.96181 3.9359 4.22879
H 0.977636 3.09737 4.99221
O 1.96965 8.66104 1.29557
H 2.38044 8.64739 2.17744
H 2.63619 9.07027 0.728184
O 2.88476 9.86816 6.08265
H 3.53316 9.81743 6.813
H 2.63279 10.8045 6.17178
O 30.5471 21.5339 36.4988
H 29.8069 22.1767 36.5302
H 31.2325 22.0355 36.103
O 3.03487 43.0118 0.264117
H 3.13343 42.3469 44.8062
H 2.15243 43.4232 0.273088
O 4.91354 0.484592 1.43119
H 4.99995 44.0174 2.19933
H 4.3545 -0.0760868 0.864448
O 13.6951 42.5314 9.03835
H 13.6796 41.6026 9.25855
H 14.4977 42.5168 8.4906
O 5.19407 3.88551 6.22074
H 5.00368 3.57259 7.10184
H 6.11794 4.24535 6.28868
O 41.1675 30.8296 26.3043
H 40.9754 31.1714 27.2494
H 40.7231 29.902 26.3639
O 10.5294 0.903629 2.21007
H 9.6219 0.783754 1.92546
H 10.9614 -0.0243183 2.22074
O 9.676 5.62852 44.3594
H 9.35047 4.91282 43.8257
H 10.4108 5.91867 43.8294
O 15.0645 4.66416 5.34353
H 15.0993 5.56784 5.75673
H 14.1352 4.58147 5.16167
O 12.4245 4.22405 5.55181
H 11.8127 4.883 5.87407
H 12.0611 3.82816 4.76029
O 8.66341 3.09648 7.79061
H 8.52357 2.26737 7.3682
H 9.10715 2.90825 8.60183
O 7.62515 4.34346 3.28093
H 8.18004 4.69004 2.55842
H 6.91444 3.85128 2.91905
O 13.1398 42.6455 5.88925
H 12.7577 42.7601 6.74418
H 13.9422 43.21 5.84776
O 14.0131 2.38991 7.37908
H 13.2172 2.57187 6.88947
H 14.4859 3.20129 7.16843
O 7.74167 5.04778 5.93033
H 8.27828 4.41957 6.41951
H 7.76081 4.67287 5.06133
O 11.4835 3.33951 3.36002
H 11.3626 2.5131 3.01927
H 11.057 4.03343 2.82824
O 9.9771 5.59823 1.90726
H 10.0735 6.42623 2.42337
H 9.90149 5.68544 0.965086
O 12.0763 42.7806 3.12401
H 12.5326 42.055 2.70129
H 12.2576 42.7615 4.07041
O 15.6032 43.7465 6.99549
H 16.5445 43.8909 6.79393
H 15.1759 0.49089 7.06127
O 12.2489 1.08494 10.101
H 12.7896 0.275527 10.2959
H 12.7671 1.55588 9.41857
O 10.2481 6.79131 6.15159
H 10.188 7.60428 6.66228
H 9.32574 6.53268 5.97062
O 9.71251 2.12671 10.0972
H 10.5851 1.73136 10.1042
H 9.72882 2.68901 10.8645
O 18.1213 -0.06293 6.38175
H 18.5152 0.840909 6.31596
H 18.8704 43.4406 6.34348
O 19.8905 5.37494 44.5315
H 20.3614 4.51415 44.6548
H 19.1656 5.41939 -0.0110957
O 22.2709 3.84932 2.03391
H 23.1761 3.83616 1.80634
H 22.1008 4.72395 1.64625
O 22.0045 3.69012 4.87432
H 22.1777 3.83629 3.95325
H 22.4445 2.85924 5.12504
O 21.0079 43.5674 7.03222
H 21.6187 0.0869405 6.66557
H 21.6019 42.8989 7.33766
O 19.1273 3.23778 5.68831
H 19.0067 3.44388 6.64263
H 20.003 3.37487 5.42395
O 19.9601 7.05583 42.4382
H 19.7139 6.32093 41.862
H 20.137 6.64728 43.3042
O 22.9483 1.18089 5.94978
H 23.5802 1.19955 6.69245
H 23.4483 0.601387 5.33277
O 20.2293 3.95382 8.60049
H 20.3806 2.9896 8.78191
H 19.8323 4.33247 9.38651
O 17.5294 4.57328 3.67401
H 16.7493 4.58606 4.25219
H 18.1677 4.07885 4.22967
O 17.9125 5.84952 1.16665
H 17.8053 6.78282 1.33071
H 17.8712 5.43857 2.04615
O 20.8359 9.24171 40.7428
H 20.6923 8.50419 41.355
H 21.7491 9.27287 40.4508
O 24.8946 43.374 4.86732
H 25.6999 43.8194 4.54824
H 25.0823 42.4539 4.58926
O 24.6369 0.178663 7.89975
H 25.4469 0.612893 8.26424
H 24.9201 43.8019 7.22772
O 22.5676 5.17768 7.58108
H 21.8035 4.85219 8.0323
H 22.4207 4.89185 6.65602
O 20.6272 1.29918 9.38087
H 21.5132 1.12788 9.6472
H 20.4519 0.753876 8.57524
O 27.797 0.639717 3.89303
H 28.2951 0.263 3.1893
H 28.419 0.929895 4.54109
O 27.5496 8.26975 0.526044
H 28.2113 8.46914 1.23285
H 27.6734 9.01565 45.1178
O 27.6684 9.42282 43.1178
H 28.4716 9.24622 42.7204
H 27.2224 9.97784 42.5421
O 30.1426 8.03361 6.8286
H 30.4316 8.32851 5.95585
H 29.9059 7.10622 6.75133
O 28.7701 2.53448 6.28613
H 29.6828 2.26056 6.46991
H 28.31 2.26336 7.12616
O 28.9444 5.51679 6.38716
H 28.8459 4.59585 6.62228
H 28.2966 5.57992 5.6244
O 28.7542 41.5593 45.1709
H 27.8239 41.3798 45.1236
H 29.1914 40.865 44.6794
O 31.7988 2.3382 6.28316
H 31.7807 2.36081 5.31305
H 32.318 1.5577 6.40238
O 25.173 4.35245 8.46022
H 24.2665 4.43836 8.13597
H 25.5143 5.27124 8.35559
O 24.5913 4.51241 0.714476
H 25.3802 4.00847 0.739112
H 24.8512 5.48823 0.708264
O 24.9565 7.19962 0.580774
H 24.5727 7.36493 44.8917
H 25.8397 7.49661 0.372505
O 28.9682 43.6991 1.66213
H 28.6614 44.3398 0.971138
H 29.1791 42.8416 1.18569
O 26.2645 40.2093 44.8804
H 25.3943 40.5139 45.2552
H 26.2197 39.2567 -0.155137
O 35.8835 32.8127 24.7105
H 36.2285 33.5968 24.336
H 36.4825 32.1953 24.3386
O 28.9371 9.93318 8.54368
H 29.2438 9.27979 7.85809
H 28.0173 10.0476 8.46229
O 26.8957 2.00939 8.46314
H 26.2334 2.76557 8.42895
H 27.1909 2.16344 9.33049
    
    &END COORD
  &END SUBSYS
  &DFT
    BASIS_SET_FILE_NAME  BASIS_SET
    POTENTIAL_FILE_NAME  GTH_POTENTIALS
    &QS
      EPS_DEFAULT 1.0E-10
    &END QS
    &MGRID
      NGRIDS 4
      CUTOFF 135
      REL_CUTOFF 115
    &END MGRID
    &XC
      &XC_FUNCTIONAL PADE
      &END XC_FUNCTIONAL
    &END XC
    &SCF
      SCF_GUESS ATOMIC
      EPS_SCF 1.0E-7
      MAX_SCF 300
      &DIAGONALIZATION  ON
        ALGORITHM STANDARD
      &END DIAGONALIZATION
      &MIXING  T
        METHOD BROYDEN_MIXING
        ALPHA 0.4
        NBROYDEN 8
      &END MIXING
    &END SCF
  &END DFT
  &PRINT
    &FORCES ON
    &END FORCES
  &END PRINT
&END FORCE_EVAL
