&GLOBAL
  PROJECT H2O_bulk
  RUN_TYPE ENERGY_FORCE
  PRINT_LEVEL LOW
&END GLOBAL
&FORCE_EVAL
  METHOD Quickstep
  &SUBSYS
    &KIND H
      ELEMENT   H
      BASIS_SET DZVP-GTH-PBE
      POTENTIAL GTH-PBE-q1
    &END KIND
    &KIND O
      ELEMENT   O
      BASIS_SET DZVP-GTH-PBE
      POTENTIAL GTH-PBE-q6
    &END KIND
    &CELL
      A     46.937    0.000000000    0.000000000
      B     0.000000000    44.121    0.000000000
      C     0.000000000    0.000000000    45.182
    &END CELL
    &COORD

O 46.5854 44.051 2.47634
H 45.8798 43.4547 2.78964
H 46.2949 0.812733 2.63254
O 5.10578 3.50707 43.8991
H 5.41009 4.39727 43.5763
H 5.06399 3.04189 43.0758
O 5.37233 3.18315 1.63998
H 4.90326 2.34922 1.75581
H 5.27335 3.27408 0.656699
O 3.74562 4.7074 3.50595
H 4.33499 5.05927 4.19019
H 4.25805 4.32505 2.73689
O 45.8578 2.69171 2.20937
H 46.5832 3.28856 2.56149
H 45.1678 3.27397 1.96362
O 3.07968 7.67753 2.61528
H 3.05264 6.82584 3.04174
H 4.02025 7.88716 2.40531
O 5.44096 3.57567 41.2046
H 4.91632 3.41551 40.3876
H 6.32213 3.48024 40.9636
O 0.916542 3.96372 3.59178
H 1.8705 4.01109 3.71564
H 0.760317 4.53038 4.36902
O 1.86006 9.15335 0.393351
H 1.99188 8.51729 1.1495
H 2.03326 8.5857 44.848
O 6.20958 8.31729 3.35239
H 6.34809 9.12273 3.87579
H 6.11842 7.64826 4.02167
O 25.4502 25.7751 34.0604
H 26.4196 25.8249 33.978
H 25.334 24.8549 34.0473
O 2.30671 43.4756 2.20622
H 2.34997 42.5442 1.89766
H 1.31612 43.7525 2.22486
O 4.8502 0.5682 2.13103
H 5.30494 0.14282 1.42246
H 3.85919 0.304547 2.12642
O 14.3201 43.0976 8.09744
H 14.963 42.7393 8.71381
H 14.8882 43.6456 7.52269
O 5.69715 5.93934 5.34602
H 5.53302 6.6488 5.97367
H 6.45861 5.51039 5.71532
O 42.7294 25.9512 32.1004
H 42.899 26.7926 32.3971
H 42.3429 25.5559 32.8711
O 13.8587 0.597756 1.9705
H 13.5449 43.8722 2.30116
H 14.0641 0.302628 1.10088
O 11.0072 5.41842 44.1103
H 11.2298 6.34512 43.931
H 11.0305 4.98511 43.2555
O 15.8387 5.88392 5.8115
H 15.6372 6.68042 6.30603
H 14.9834 5.68436 5.39163
O 13.3492 4.70776 5.12378
H 12.4768 4.56705 5.50116
H 13.3571 4.252 4.2908
O 7.88755 2.24584 8.20152
H 7.25106 1.5164 8.31423
H 8.50906 2.13208 8.90829
O 7.95727 2.91785 3.36346
H 8.72802 3.05236 2.8373
H 7.26746 2.88835 2.65223
O 13.674 41.2136 5.40421
H 13.9906 41.6796 6.23258
H 14.4729 40.7959 5.09057
O 14.8616 2.9148 6.77843
H 14.3822 3.45023 6.15047
H 15.4804 3.53613 7.19332
O 8.20899 3.92278 5.74974
H 8.09906 3.3389 6.48715
H 8.13258 3.48172 4.91629
O 13.1892 3.12662 2.72553
H 13.4036 2.22241 2.63758
H 12.6018 3.31064 1.98346
O 10.5282 4.34977 1.69135
H 10.2824 5.0112 2.34705
H 10.6897 4.68049 0.830047
O 12.221 42.4337 3.47788
H 11.4521 42.89 3.81484
H 12.7354 42.0876 4.32512
O 15.3423 0.196065 5.6377
H 16.2528 0.215209 5.33463
H 15.1044 1.14752 5.70945
O 13.0842 1.61623 8.80942
H 13.3983 0.681042 8.70709
H 13.7529 2.08454 8.23301
O 10.7652 4.69457 6.66399
H 10.4452 5.48014 7.11232
H 9.94998 4.39085 6.19067
O 10.4409 1.74462 9.93245
H 11.1852 1.70998 9.27738
H 10.9117 1.56208 10.7478
O 17.9091 0.813286 4.6475
H 18.4918 1.44257 5.06322
H 18.474 0.0454953 4.4678
O 17.8179 6.43391 43.7287
H 16.9681 6.50233 44.0857
H 18.2578 5.90429 44.415
O 23.5337 3.20215 2.99024
H 24.0648 3.9963 2.81102
H 22.9513 3.03056 2.28844
O 22.4422 2.59034 5.45732
H 22.954 2.81744 4.59095
H 22.8264 1.82285 5.87534
O 20.6344 43.9933 8.63521
H 20.0013 43.3515 8.28486
H 21.376 43.9279 7.99355
O 19.7109 2.91697 5.74693
H 19.6594 3.06424 6.66966
H 20.6459 2.62181 5.6084
O 19.387 8.27694 42.2145
H 19.9816 7.53659 42.0615
H 18.6317 7.78664 42.5084
O 23.1097 0.177807 7.06371
H 23.9639 0.313029 7.54492
H 23.4706 43.6571 6.43412
O 19.3739 4.29499 8.54055
H 19.4619 3.62568 9.2302
H 18.5241 4.65203 8.68032
O 18.4595 5.7233 4.19376
H 17.5525 5.79831 4.54616
H 18.84 4.94991 4.63308
O 17.7811 5.11438 1.26015
H 18.0814 5.20914 2.19855
H 17.4308 4.238 1.32155
O 20.6196 10.7303 43.1994
H 19.9435 10.4537 42.5561
H 21.0782 9.92576 43.4676
O 26.1119 42.7669 5.20918
H 26.8647 43.2835 4.83376
H 25.9477 41.981 4.63906
O 25.6397 0.124497 7.72677
H 26.213 0.808176 7.96233
H 26.0896 43.6347 7.0278
O 22.7429 4.35988 7.64631
H 21.9049 4.76628 7.96543
H 22.5602 3.89888 6.80596
O 19.5747 2.05325 10.217
H 18.8596 1.72543 10.6545
H 20.0718 1.30687 9.83433
O 28.2735 0.4573 4.15471
H 28.3234 0.469827 3.2138
H 27.9838 1.35329 4.46417
O 26.3044 9.27031 43.6232
H 26.8572 9.99094 43.2173
H 25.6123 9.04099 42.963
O 27.1375 10.3715 40.9599
H 26.8505 10.714 40.0825
H 28.0325 10.8223 40.9777
O 29.2337 7.68152 6.44209
H 29.8682 7.61882 7.18982
H 29.2559 6.90303 5.81738
O 28.6015 2.74738 6.19703
H 29.464 2.36965 6.5398
H 28.0125 2.70008 6.96761
O 29.251 5.25972 4.9929
H 29.005 4.35846 5.30657
H 29.3452 5.19235 4.08003
O 25.9886 42.1519 0.074416
H 25.7396 41.2399 0.215159
H 25.3099 42.4581 44.7227
O 30.8195 1.50962 7.32085
H 31.6195 1.99658 7.49758
H 30.986 0.607915 7.58573
O 25.1592 4.65692 8.78339
H 24.3695 4.50283 8.25624
H 25.3615 5.51867 8.47624
O 24.8441 5.63355 2.38012
H 25.725 6.0234 2.55642
H 24.4282 6.4678 2.03274
O 25.2995 8.29154 1.21571
H 24.99 9.21037 1.4378
H 25.7789 8.31999 0.354527
O 28.2389 43.8997 1.37595
H 27.7725 43.1505 1.1211
H 27.9434 0.376466 0.641912
O 25.4129 38.9923 44.8807
H 24.4587 38.7789 44.9983
H 25.8086 38.1899 45.1135
O 33.9736 30.3384 28.2215
H 33.8082 31.3082 28.3016
H 34.9454 30.3355 27.9621
O 28.0457 10.5438 7.35352
H 28.0095 9.55795 7.1177
H 28.6502 10.9321 6.74696
O 27.0552 2.8289 8.56558
H 26.2694 3.39175 8.55559
H 27.5365 3.12427 9.37842
    
    &END COORD
  &END SUBSYS
  &DFT
    BASIS_SET_FILE_NAME  BASIS_SET
    POTENTIAL_FILE_NAME  GTH_POTENTIALS
    &QS
      EPS_DEFAULT 1.0E-10
    &END QS
    &MGRID
      NGRIDS 4
      CUTOFF 135
      REL_CUTOFF 115
    &END MGRID
    &XC
      &XC_FUNCTIONAL PADE
      &END XC_FUNCTIONAL
    &END XC
    &SCF
      SCF_GUESS ATOMIC
      EPS_SCF 1.0E-7
      MAX_SCF 300
      &DIAGONALIZATION  ON
        ALGORITHM STANDARD
      &END DIAGONALIZATION
      &MIXING  T
        METHOD BROYDEN_MIXING
        ALPHA 0.4
        NBROYDEN 8
      &END MIXING
    &END SCF
  &END DFT
  &PRINT
    &FORCES ON
    &END FORCES
  &END PRINT
&END FORCE_EVAL
