&GLOBAL
  PROJECT H2O_bulk
  RUN_TYPE ENERGY_FORCE
  PRINT_LEVEL LOW
&END GLOBAL
&FORCE_EVAL
  METHOD Quickstep
  &SUBSYS
    &KIND H
      ELEMENT   H
      BASIS_SET DZVP-GTH-PBE
      POTENTIAL GTH-PBE-q1
    &END KIND
    &KIND O
      ELEMENT   O
      BASIS_SET DZVP-GTH-PBE
      POTENTIAL GTH-PBE-q6
    &END KIND
    &CELL
      A     46.937    0.000000000    0.000000000
      B     0.000000000    44.121    0.000000000
      C     0.000000000    0.000000000    45.182
    &END CELL
    &COORD

O 2.46031 3.41054 6.44967
H 1.59063 3.29014 6.74511
H 2.6357 4.34325 6.30727
O 4.5422 1.0022 43.7888
H 4.19968 1.94036 43.5932
H 4.88012 0.632337 42.9684
O 5.74242 1.37047 1.27032
H 5.02366 0.897789 1.75469
H 5.4919 1.18963 0.315281
O 5.52538 4.75416 0.893666
H 6.31779 5.14769 1.39416
H 5.73866 3.80911 0.902103
O 3.37271 5.87305 5.61152
H 3.4867 5.94375 4.6198
H 2.96324 6.73482 5.75623
O 3.82562 6.18459 44.2685
H 4.6853 6.01294 44.567
H 3.77726 7.08841 44.0005
O 3.5865 3.44022 42.9827
H 3.55493 4.30618 43.4589
H 3.20249 3.70572 42.0885
O 3.77045 6.37399 2.48723
H 4.23672 5.67211 2.03369
H 2.95443 6.50101 1.93731
O 6.83934 9.79736 43.3441
H 7.09973 8.87313 43.3528
H 7.42484 10.1602 44.043
O 3.6776 8.99854 43.2602
H 4.4896 9.44333 43.3782
H 3.03802 9.65541 43.4474
O 7.5624 40.3131 25.4663
H 7.60849 41.2253 25.8444
H 8.40433 40.2381 25.0729
O 3.77668 1.06387 5.43553
H 4.63889 1.3937 5.75367
H 3.15008 1.73258 5.75781
O 3.49738 0.149944 2.8069
H 2.59713 0.0145454 2.4911
H 3.42527 0.451777 3.7565
O 18.4748 42.7171 4.27988
H 19.1547 42.1331 4.68615
H 18.3302 43.489 4.87044
O 7.77311 5.51387 2.15364
H 7.7595 6.26008 2.75845
H 8.25254 4.77058 2.60315
O 1.23474 9.15699 7.52593
H 1.63827 9.85221 6.84439
H 1.88149 9.19368 8.24085
O 11.7498 42.0851 1.83336
H 12.6289 41.5812 1.72787
H 11.1385 41.3766 2.04715
O 10.5482 0.990758 42.6699
H 9.89855 1.67894 42.5089
H 10.2533 0.193408 42.2708
O 15.3092 5.79404 3.66555
H 14.469 6.05221 4.03514
H 15.0119 4.9791 3.17231
O 13.5942 3.15426 3.54693
H 12.8798 3.74891 3.76742
H 13.6095 2.87277 2.62898
O 8.24845 2.57959 6.7305
H 8.28135 3.07327 7.51914
H 8.74447 1.78233 6.8951
O 8.86123 1.89324 2.17614
H 9.55591 1.39576 1.79167
H 8.17613 1.91413 1.49759
O 16.7984 41.0425 2.47377
H 17.1666 41.705 3.06375
H 17.5607 40.669 1.9892
O 14.4404 1.27741 5.16559
H 14.2742 2.04867 4.53128
H 13.9029 1.51584 5.93568
O 9.03396 3.66346 4.23832
H 8.57537 3.46727 5.06252
H 8.93965 2.98014 3.53119
O 13.4673 2.64188 0.919439
H 14.2497 2.59928 0.42506
H 12.8732 1.89654 0.737399
O 11.404 0.528284 0.488627
H 11.0413 0.702272 44.7425
H 11.737 43.7573 0.587387
O 14.0856 40.6756 1.59965
H 14.1599 39.9703 0.955981
H 14.9411 41.0012 1.74605
O 17.8214 0.938335 5.9123
H 18.0182 1.61757 5.21531
H 16.8515 0.962244 5.97839
O 11.4881 0.723325 4.31032
H 11.4668 0.280523 3.46368
H 12.4097 0.964318 4.42161
O 11.5949 4.82722 4.62145
H 11.753 4.97971 5.57209
H 10.7357 4.40724 4.54568
O 9.21226 43.7184 6.53245
H 9.80187 43.9091 5.81574
H 9.59844 42.9241 6.94225
O 18.427 2.8591 4.05076
H 18.3087 3.78643 4.10728
H 19.2781 2.75394 3.55304
O 18.6423 10.9013 1.24813
H 18.0642 10.4242 0.648721
H 18.7929 10.2125 1.87884
O 22.5109 6.05036 3.59645
H 22.7039 6.12928 2.66295
H 22.8971 5.23472 3.91535
O 22.3446 7.59246 5.79498
H 21.6728 8.29446 5.72347
H 22.1855 7.07723 5.03476
O 21.626 43.9719 8.95042
H 21.8814 43.1184 8.57161
H 22.3475 0.0113073 9.56916
O 19.6581 5.95628 6.28481
H 19.7289 5.32043 7.00708
H 20.4798 6.41689 6.16011
O 16.1713 13.1424 2.17182
H 16.4622 12.4524 2.75116
H 16.9079 13.1187 1.56019
O 24.0488 44.0944 10.7311
H 24.7887 43.8616 10.0819
H 24.5687 0.683261 11.1077
O 19.8982 3.8783 8.12215
H 20.0056 2.90321 7.88566
H 19.3536 3.81724 8.93017
O 17.9001 5.85977 4.18738
H 16.9708 5.91365 4.39164
H 18.4363 6.00803 4.99829
O 17.6811 8.33397 2.40597
H 17.831 7.49476 2.86
H 16.7357 8.38393 2.26972
O 15.1556 15.5735 3.71386
H 15.4606 15.032 2.99417
H 15.9784 16.0341 3.74774
O 26.9318 41.9945 7.45389
H 27.4376 41.6447 6.72879
H 26.1615 41.4703 7.46517
O 26.3022 44.008 9.01442
H 26.5146 0.831478 8.82307
H 26.5579 43.4305 8.31533
O 25.1605 7.53828 6.84281
H 25.5245 8.40298 6.55262
H 24.2227 7.58973 6.63525
O 19.4373 1.39763 8.52755
H 18.7662 0.992342 7.89415
H 20.1506 0.787976 8.78502
O 28.2443 40.645 5.52683
H 28.2813 40.8137 4.52049
H 29.1368 40.3097 5.71373
O 22.1082 7.29676 41.7156
H 21.7315 7.08795 40.887
H 22.4456 8.24934 41.7272
O 22.9335 10.3638 41.507
H 22.3548 11.1295 41.7407
H 23.7527 10.8742 41.3428
O 32.1707 6.39539 3.96646
H 31.4039 6.20843 4.46748
H 32.6589 5.67389 4.34923
O 30.0478 3.51418 6.88986
H 30.8223 3.32905 7.35759
H 29.3481 3.37233 7.5162
O 29.8973 5.78764 5.34632
H 29.9114 5.07894 5.98231
H 29.5542 6.5555 5.89154
O 26.2748 42.0193 1.11579
H 25.8106 41.5702 0.425965
H 25.6879 42.8896 1.28973
O 32.2872 2.70803 8.79109
H 33.0874 3.19122 8.51179
H 32.5903 1.98192 9.31002
O 25.3268 5.05377 8.22048
H 25.4014 5.88127 7.72897
H 24.4401 4.78055 8.11183
O 22.9847 5.5264 0.899712
H 22.4298 5.19033 0.223286
H 23.6014 5.93554 0.343485
O 23.8192 5.82206 43.5572
H 24.0779 4.91881 43.2947
H 23.2535 6.04067 42.7998
O 27.6507 40.6579 3.02162
H 26.8815 41.1212 2.64098
H 28.2398 40.7935 2.23383
O 23.7901 44.0596 44.6111
H 23.1372 0.0393427 0.109675
H 23.8983 0.916977 44.3541
O 27.2696 21.8255 40.7523
H 27.3551 20.9093 41.0441
H 26.3307 21.9429 40.7379
O 32.1632 8.9036 2.63278
H 32.684 8.19716 3.0516
H 31.3343 8.47561 2.26464
O 27.497 3.48906 8.75114
H 26.7354 4.01426 8.47135
H 27.6736 3.66477 9.61049
    
    &END COORD
  &END SUBSYS
  &DFT
    BASIS_SET_FILE_NAME  BASIS_SET
    POTENTIAL_FILE_NAME  GTH_POTENTIALS
    &QS
      EPS_DEFAULT 1.0E-10
    &END QS
    &MGRID
      NGRIDS 4
      CUTOFF 135
      REL_CUTOFF 115
    &END MGRID
    &XC
      &XC_FUNCTIONAL PADE
      &END XC_FUNCTIONAL
    &END XC
    &SCF
      SCF_GUESS ATOMIC
      EPS_SCF 1.0E-7
      MAX_SCF 300
      &DIAGONALIZATION  ON
        ALGORITHM STANDARD
      &END DIAGONALIZATION
      &MIXING  T
        METHOD BROYDEN_MIXING
        ALPHA 0.4
        NBROYDEN 8
      &END MIXING
    &END SCF
  &END DFT
  &PRINT
    &FORCES ON
    &END FORCES
  &END PRINT
&END FORCE_EVAL
