&GLOBAL
  PROJECT H2O_bulk
  RUN_TYPE ENERGY_FORCE
  PRINT_LEVEL LOW
&END GLOBAL
&FORCE_EVAL
  METHOD Quickstep
  &SUBSYS
    &KIND H
      ELEMENT   H
      BASIS_SET DZVP-GTH-PBE
      POTENTIAL GTH-PBE-q1
    &END KIND
    &KIND O
      ELEMENT   O
      BASIS_SET DZVP-GTH-PBE
      POTENTIAL GTH-PBE-q6
    &END KIND
    &CELL
      A     46.937    0.000000000    0.000000000
      B     0.000000000    44.121    0.000000000
      C     0.000000000    0.000000000    45.182
    &END CELL
    &COORD

O 4.67852000 10.19990000 5.00840000
H 4.68572000 11.99900000 5.12889000
H 5.06138000 9.38749000 6.66088000
O 0.84677200 0.82402700 16.58560000
H 1.77091000 22.62540000 15.65550000
H 22.17750000 0.24470800 16.49470000
O 8.95078000 14.56830000 6.81806000
H 8.14358000 14.91530000 5.16247000
H 10.00060000 13.11570000 6.66595000
O 15.50470000 19.87580000 9.38218000
H 16.05520000 18.41170000 8.38011000
H 16.86000000 19.91180000 10.61540000
O 7.69455000 16.14170000 21.25100000
H 7.12072000 17.67600000 20.48350000
H 8.07556000 15.04720000 19.79650000
O 19.20620000 11.26100000 17.70900000
H 19.27730000 11.92310000 16.01060000
H 17.61860000 11.99290000 18.30630000
O 5.50763000 8.32311000 15.77260000
H 3.69362000 8.25008000 15.63800000
H 6.06969000 6.64813000 16.15630000
O 1.35356000 17.40740000 12.05830000
H 1.73544000 16.23810000 13.44560000
H 1.22496000 16.34140000 10.56660000
O 12.66240000 18.61830000 22.11640000
H 9.97313000 22.47550000 21.57840000
H 11.79000000 17.26120000 21.26440000
O 21.91970000 20.34230000 6.93846000
H 0.33274300 20.19420000 8.06739000
H -0.33647300 20.01630000 5.33080000
O 17.76130000 14.77310000 11.80700000
H 18.12260000 16.30260000 12.62140000
H 16.09310000 14.29930000 12.45030000
O 8.48338000 23.11450000 3.85233000
H 9.71370000 21.68940000 4.07647000
H 8.24845000 -0.12661900 2.06725000
O 0.69732400 15.07920000 2.99286000
H 0.61855300 13.79740000 1.70047000
H 1.61216000 14.43280000 4.42235000
O 22.15710000 10.74200000 12.16480000
H 22.29000000 8.99154000 11.66790000
H 20.59090000 11.48020000 11.66940000
O 4.08503000 20.21540000 20.06730000
H 2.67296000 19.33760000 19.25620000
H 4.43362000 21.54860000 18.88210000
O 5.85971000 7.93032000 9.25706000
H 7.49286000 7.08924000 9.01763000
H 6.14731000 9.38079000 10.36440000
O 22.33550000 4.57733000 22.68010000
H 22.40650000 3.84664000 1.28196000
H 22.75950000 3.32975000 21.44700000
O 14.99780000 1.98631000 20.27310000
H 14.85520000 0.46356000 21.28090000
H 14.56150000 1.28261000 18.65210000
O 20.63130000 3.76772000 9.35891000
H 19.51060000 4.94841000 10.18510000
H 19.80310000 3.41987000 7.73894000
O 11.50450000 5.11278000 1.77539000
H 12.77050000 5.46290000 2.96236000
H 11.99770000 5.50808000 0.08512400
O 4.95788000 11.43870000 19.74180000
H 5.84596000 10.15810000 20.70880000
H 5.26462000 10.69490000 18.04590000
O 22.92060000 17.92330000 18.60630000
H 0.26977200 16.14450000 18.60230000
H 22.45350000 18.11810000 20.46770000
O 19.86740000 19.10060000 13.21420000
H 19.97620000 19.08130000 15.02050000
H 21.54420000 18.47610000 12.69690000
O 18.19100000 7.74418000 23.00630000
H 18.63790000 9.48641000 0.14145300
H 19.73600000 6.83726000 22.59380000
O 12.59470000 11.91530000 11.37730000
H 12.26560000 11.15780000 9.74947000
H 12.64970000 13.70650000 11.03170000
O 6.06177000 16.67780000 3.29699000
H 5.96862000 16.97600000 1.48599000
H 4.39310000 16.34400000 3.88909000
O 9.02438000 13.65430000 16.50300000
H 9.72840000 15.18420000 15.75530000
H 10.44680000 11.24550000 16.24750000
O 6.31306000 3.10249000 21.85860000
H 4.87599000 2.92637000 22.98990000
H 7.29214000 4.27897000 22.87690000
O 3.49824000 3.21869000 3.48377000
H 3.66075000 2.74178000 5.24219000
H 2.02056000 4.31680000 3.43395000
O 12.82810000 22.37440000 13.82440000
H 14.39740000 23.39070000 13.70110000
H 12.83000000 21.52790000 12.21160000
O 0.98993500 6.79486000 14.30460000
H 22.61270000 6.86775000 15.49780000
H 1.15591000 5.06892000 13.75610000
O 4.38130000 21.26780000 7.36324000
H 4.70269000 21.39510000 5.56097000
H 4.63536000 22.99730000 7.91925000
O 9.94482000 23.27830000 19.80490000
H 8.75872000 22.20360000 18.89830000
H 9.11853000 1.89125000 19.83430000
O 0.39085600 8.52499000 3.31109000
H -0.06049700 9.66341000 1.98383000
H 2.04907000 9.01691000 3.90348000
O 21.09620000 18.99820000 0.31356600
H 21.91560000 17.64080000 1.25315000
H 22.19280000 20.47270000 0.66801400
O 12.36700000 10.10190000 6.19103000
H 13.53130000 8.76497000 6.77057000
H 13.55280000 11.15160000 5.25200000
O 18.11080000 15.88900000 6.28598000
H 19.79490000 16.26250000 5.78775000
H 18.08340000 15.38240000 8.02396000
O 15.41470000 7.19951000 10.50360000
H 14.74380000 5.50097000 10.30550000
H 15.26680000 7.68201000 12.21880000
O 6.24642000 13.30370000 11.43650000
H 7.06103000 13.73700000 13.04250000
H 7.54866000 13.65070000 10.12120000
O 17.17960000 19.09520000 18.39070000
H 16.23370000 19.44450000 19.94620000
H 18.81550000 18.86330000 19.14230000
O 11.96410000 19.09790000 3.94037000
H 11.20020000 17.86530000 5.06396000
H 11.98570000 18.41490000 2.07507000
O 14.72390000 14.11210000 17.23170000
H 15.41090000 15.79420000 17.55030000
H 12.92840000 14.28310000 17.68630000
O 0.37271400 11.97390000 22.00160000
H 2.08482000 11.83060000 21.29330000
H 22.39440000 11.60230000 20.55360000
O 11.68970000 9.74481000 15.69100000
H 12.82860000 8.84976000 16.81600000
H 12.51690000 10.19280000 14.08720000
O 8.17688000 9.13376000 1.06768000
H 9.08316000 7.72407000 1.85635000
H 7.21104000 9.75448000 2.47523000
O 20.21990000 6.11999000 17.61000000
H 19.62610000 7.87811000 17.24770000
H 19.30360000 4.86736000 16.65530000
O 13.72560000 7.02411000 19.85150000
H 14.95100000 7.60361000 21.10180000
H 14.11980000 5.18181000 19.86210000
O 19.35690000 8.81624000 6.26040000
H 20.83410000 8.23934000 5.27880000
H 18.70440000 10.16940000 5.21624000
O 9.46465000 4.04444000 7.82573000
H 11.14970000 3.84484000 8.42246000
H 9.50320000 2.99785000 6.35149000
O 12.48630000 12.26530000 22.05470000
H 11.01880000 11.30620000 22.58110000
H 13.26510000 11.24650000 20.78190000
O 20.91020000 2.04590000 4.55527000
H 19.83420000 1.61117000 3.15110000
H 20.92060000 0.46896500 5.46868000
O 9.14207000 3.41624000 13.61070000
H 8.64296000 3.60689000 11.89020000
H 10.25990000 1.97181000 13.72890000
O 6.82938000 19.43140000 11.39040000
H 6.31040000 19.53260000 9.62655000
H 5.55185000 18.36750000 12.11220000
O 14.57680000 2.33769000 8.82130000
H 14.89120000 3.22433000 7.24434000
H 15.54250000 0.80541700 8.69465000
O 3.00763000 3.56623000 8.52109000
H 4.10142000 5.00177000 8.73479000
H 1.28536000 4.14395000 8.55831000
O 18.24180000 1.47779000 13.67900000
H 18.40950000 1.00577000 11.90630000
H 19.52490000 23.39670000 14.30280000
O 16.08930000 5.29001000 4.58855000
H 16.88230000 5.66263000 2.94969000
H 17.05190000 6.41251000 5.71914000
O 11.31930000 17.16550000 13.12670000
H 9.88298000 18.16650000 12.59610000
H 12.41480000 18.24440000 14.07500000
O 16.27840000 12.56340000 2.68090000
H 17.03200000 14.14540000 3.46011000
H 15.00630000 13.28680000 1.57923000
O 1.15181000 13.82200000 7.91048000
H 22.46060000 13.35370000 7.68396000
H 1.99628000 12.21030000 8.35871000
O 6.63243000 22.66340000 16.29700000
H 7.02806000 21.64750000 14.81970000
H 6.42823000 1.31962000 15.67870000
O 16.85010000 22.45020000 2.00760000
H 17.65830000 20.69440000 1.96492000
H 15.33330000 22.08040000 2.97424000
O 1.75545000 22.17500000 1.07945000
H 2.87259000 21.55720000 22.80370000
H 2.58791000 0.49493300 2.02762000
O 2.02614000 13.57670000 15.42570000
H 3.43749000 13.31960000 16.57520000
H 2.57306000 12.65880000 13.92400000
    
    &END COORD
  &END SUBSYS
  &DFT
    BASIS_SET_FILE_NAME  BASIS_SET
    POTENTIAL_FILE_NAME  GTH_POTENTIALS
    &QS
      EPS_DEFAULT 1.0E-10
    &END QS
    &MGRID
      NGRIDS 4
      CUTOFF 135
      REL_CUTOFF 115
    &END MGRID
    &XC
      &XC_FUNCTIONAL PADE
      &END XC_FUNCTIONAL
    &END XC
    &SCF
      SCF_GUESS ATOMIC
      EPS_SCF 1.0E-7
      MAX_SCF 300
      &DIAGONALIZATION  ON
        ALGORITHM STANDARD
      &END DIAGONALIZATION
      &MIXING  T
        METHOD BROYDEN_MIXING
        ALPHA 0.4
        NBROYDEN 8
      &END MIXING
    &END SCF
  &END DFT
  &PRINT
    &FORCES ON
    &END FORCES
  &END PRINT
&END FORCE_EVAL
