&GLOBAL
  PROJECT H2O_bulk
  RUN_TYPE ENERGY_FORCE
  PRINT_LEVEL LOW
&END GLOBAL
&FORCE_EVAL
  METHOD Quickstep
  &SUBSYS
    &KIND H
      ELEMENT   H
      BASIS_SET DZVP-GTH-PBE
      POTENTIAL GTH-PBE-q1
    &END KIND
    &KIND O
      ELEMENT   O
      BASIS_SET DZVP-GTH-PBE
      POTENTIAL GTH-PBE-q6
    &END KIND
    &CELL
      A     46.937    0.000000000    0.000000000
      B     0.000000000    44.121    0.000000000
      C     0.000000000    0.000000000    45.182
    &END CELL
    &COORD

O 11.73310000 20.01680000 27.97420000
H 11.55450000 20.86000000 26.29580000
H 9.86642000 20.44670000 28.05730000
O 4.53739000 3.53370000 5.12628000
H 3.62804000 4.43369000 6.33694000
H 5.70434000 4.58768000 4.07511000
O -2.95987000 26.42090000 2.34408000
H -1.20115000 26.02380000 1.83551000
H -2.65283000 28.27090000 3.17140000
O 7.78260000 7.15366000 26.86940000
H 6.82792000 7.98274000 25.46080000
H 9.06516000 6.66956000 25.63110000
O 19.60280000 15.85870000 8.55907000
H 18.41210000 17.09750000 9.57303000
H 19.36810000 16.38130000 6.65291000
O 16.74790000 2.92099000 22.31110000
H 18.09910000 3.42639000 23.59430000
H 17.23250000 3.32635000 20.65770000
O -4.10313000 1.21684000 7.12061000
H -2.55303000 0.84228700 8.21165000
H -3.51734000 1.82484000 28.98550000
O 17.40210000 11.63030000 21.39380000
H 17.67180000 13.86930000 20.49560000
H 19.21950000 10.91510000 20.38560000
O 0.33463700 -7.10415000 15.78540000
H -0.15652000 -8.67843000 15.60470000
H 2.11894000 -6.88531000 15.12970000
O 18.29240000 15.20590000 3.13365000
H 19.85490000 14.79970000 2.17666000
H 17.56600000 13.78640000 4.00671000
O 1.32061000 29.58340000 32.91400000
H -0.33893000 29.84770000 33.23340000
H 1.22475000 31.48150000 32.38560000
O 2.01171000 25.29090000 0.85959100
H 2.55561000 23.72020000 -0.08266400
H 2.20336000 25.65460000 2.70126000
O -8.26198000 4.85352000 6.69450000
H 16.33450000 5.69825000 5.43434000
H 15.94210000 3.17239000 7.30039000
O 22.58110000 8.15683000 -3.30494000
H 22.06190000 9.67902000 -4.37650000
H 24.53980000 9.04677000 20.63920000
O 22.17400000 22.73070000 18.46590000
H 22.58500000 21.04300000 19.74260000
H 22.02710000 21.95820000 16.74200000
O 10.93850000 17.64000000 -2.51626000
H 11.87410000 16.27640000 -2.01925000
H 11.51180000 19.27090000 -1.54541000
O 21.36530000 -3.39348000 13.31300000
H 19.62780000 -3.71076000 13.67190000
H 22.24620000 18.75920000 14.04840000
O 14.76040000 -0.59332300 17.67990000
H 15.26620000 0.33227100 15.93960000
H 16.51240000 -0.30221300 18.44810000
O 10.33600000 23.97600000 19.31040000
H 35.92710000 23.29420000 18.60930000
H 9.34810000 23.38340000 17.54600000
O 10.12900000 4.05325000 13.09530000
H 10.70100000 2.41257000 12.91100000
H 8.21666000 4.80096000 12.16760000
O 8.08276000 -10.76850000 20.01180000
H 7.65929000 -9.08694000 19.91270000
H 7.67817000 -11.68330000 18.53150000
O 11.90770000 17.18830000 -7.91789000
H 12.10330000 16.96290000 -5.86655000
H 10.97500000 18.77310000 -8.07343000
O 11.04050000 5.24628000 0.15188900
H 11.92540000 3.64222000 -0.12029600
H 11.46640000 5.93940000 -1.70836000
O 12.33660000 12.26010000 22.57870000
H 10.83640000 12.08280000 21.87750000
H 13.58310000 11.51250000 21.34340000
O 23.45720000 0.15509400 10.29090000
H 23.01700000 -1.36635000 11.47400000
H 25.01480000 -0.85058300 9.58673000
O 1.64653000 34.22150000 3.31645000
H 2.86046000 10.84450000 5.03054000
H 2.62703000 33.27030000 2.14908000
O 7.83769000 10.27250000 15.67880000
H 8.61555000 11.48010000 14.28060000
H 7.04721000 8.91893000 14.73030000
O -4.76163000 7.97660000 3.96525000
H -3.61132000 9.32950000 4.95372000
H -6.05204000 8.69901000 2.90561000
O 17.42960000 12.07920000 12.81250000
H 15.81240000 10.81900000 13.33480000
H 18.06610000 10.88820000 11.45240000
O 4.53967000 18.19140000 4.83315000
H 5.56435000 16.67240000 4.76799000
H 5.07737000 18.94810000 3.04213000
O 4.98127000 -0.90557800 7.91827000
H 5.35603000 0.21619200 6.61113000
H 4.72274000 -2.45184000 7.26744000
O 6.44201000 20.65970000 16.83510000
H 5.79964000 22.34600000 16.81060000
H 6.73783000 19.83190000 15.28660000
O 17.17250000 17.02180000 -9.30670000
H 14.87240000 17.02670000 -9.33984000
H 17.47460000 15.16830000 -9.92039000
O 22.55480000 -5.26803000 -1.94478000
H 22.80730000 -5.57978000 23.30100000
H 20.70730000 -6.03068000 -2.19111000
O 10.67580000 6.49565000 18.39840000
H 10.32380000 4.85091000 17.24320000
H 9.29986000 7.25662000 17.29250000
O 16.56180000 20.39400000 8.58911000
H 15.50290000 19.60230000 7.11510000
H 18.36400000 21.41900000 7.90311000
O 14.46510000 12.05880000 4.71746000
H 13.46800000 11.72610000 2.92725000
H 12.77630000 11.62880000 5.82392000
O 8.66275000 14.24740000 3.08606000
H 9.25054000 15.93160000 2.87163000
H 9.65820000 13.19050000 1.65127000
O 19.90130000 20.80270000 3.19256000
H 21.22110000 21.20420000 2.01620000
H 19.70400000 19.02560000 2.66292000
O 12.84530000 8.15811000 10.69860000
H 12.10400000 6.37409000 11.77400000
H 14.29700000 7.53427000 9.49622000
O 13.08120000 16.10410000 8.59269000
H 12.46880000 15.18450000 7.38456000
H 14.72490000 16.50620000 8.39561000
O 19.92900000 27.60320000 17.76350000
H 20.70580000 25.65470000 18.14360000
H 21.44860000 28.88270000 18.12390000
O 4.29290000 11.28770000 8.58112000
H 5.83451000 12.09620000 8.70362000
H 3.40366000 12.65450000 9.26241000
O 15.16660000 24.00770000 12.77070000
H 16.78780000 24.24420000 12.15210000
H 14.07980000 23.78580000 11.49220000
O 5.22272000 16.87080000 19.58850000
H 3.24373000 16.76310000 19.65700000
H 5.65526000 18.44420000 18.54510000
O 3.59071000 25.21200000 16.67310000
H 4.08550000 26.30960000 18.03140000
H 2.21274000 24.20580000 16.84560000
O 1.37076000 15.97140000 9.48101000
H 1.75534000 16.43670000 7.21795000
H -0.63338700 16.40890000 9.45972000
O -8.03192000 8.71938000 16.25530000
H 13.59480000 8.10297000 16.49210000
H -7.69349000 9.85537000 17.98100000
O 32.99040000 10.64530000 6.98082000
H 32.23870000 9.61955000 5.81037000
H 33.30470000 9.20138000 8.03493000
O 5.07955000 17.75790000 12.82230000
H 6.38488000 16.75080000 11.89310000
H 3.44441000 17.75020000 11.63130000
O 19.26010000 8.05246000 9.40211000
H 18.59650000 7.46149000 7.97849000
H -3.94429000 6.46902000 10.85660000
O 23.65740000 15.59400000 2.30073000
H 25.11110000 15.84610000 3.22953000
H 24.20460000 13.60990000 2.08922000
O 20.51460000 4.19705000 12.60360000
H 21.57750000 2.84222000 11.68540000
H 20.27710000 4.16084000 14.29220000
O 8.73104000 23.21860000 24.06110000
H 9.10379000 24.95900000 25.37070000
H 9.36819000 23.48180000 22.53600000
O -18.12330000 6.22933000 12.86310000
H -19.40760000 6.04677000 11.72520000
H -19.01990000 5.39052000 14.41040000
O 9.53485000 -1.11984000 10.68270000
H 10.71430000 -2.62603000 9.90398000
H 7.60533000 -1.61266000 10.12290000
O 18.13110000 -6.77036000 19.19230000
H 16.84660000 -5.56899000 19.83320000
H 17.69330000 -6.86915000 17.06330000
O 28.18290000 9.37869000 22.61590000
H 28.48680000 7.90335000 21.87140000
H 28.92080000 10.71930000 21.61000000
O 27.88310000 20.87600000 23.62830000
H 27.90050000 -3.92488000 22.35170000
H 29.86800000 21.40150000 23.97670000
O 27.98040000 27.77150000 20.79600000
H 6.25603000 26.60930000 20.97970000
H 26.69760000 27.39220000 22.11220000
O -8.11541000 21.15510000 -0.48841300
H -7.63633000 20.34340000 1.06508000
H -7.97108000 23.19690000 -0.46048700
O 10.80630000 2.29234000 4.99934000
H 11.05370000 0.62183200 6.07331000
H 12.40640000 3.64761000 5.12766000
O 21.57170000 11.37520000 15.67400000
H 19.66590000 11.10230000 14.91530000
H 22.50640000 10.33570000 14.46080000
O 9.16904000 -9.25751000 12.59550000
H 10.22320000 14.88770000 13.84040000
H 10.36530000 -8.77125000 11.18740000
    
    &END COORD
  &END SUBSYS
  &DFT
    BASIS_SET_FILE_NAME  BASIS_SET
    POTENTIAL_FILE_NAME  GTH_POTENTIALS
    &QS
      EPS_DEFAULT 1.0E-10
    &END QS
    &MGRID
      NGRIDS 4
      CUTOFF 135
      REL_CUTOFF 115
    &END MGRID
    &XC
      &XC_FUNCTIONAL PADE
      &END XC_FUNCTIONAL
    &END XC
    &SCF
      SCF_GUESS ATOMIC
      EPS_SCF 1.0E-7
      MAX_SCF 300
      &DIAGONALIZATION  ON
        ALGORITHM STANDARD
      &END DIAGONALIZATION
      &MIXING  T
        METHOD BROYDEN_MIXING
        ALPHA 0.4
        NBROYDEN 8
      &END MIXING
    &END SCF
  &END DFT
  &PRINT
    &FORCES ON
    &END FORCES
  &END PRINT
&END FORCE_EVAL
