&GLOBAL
  PROJECT H2O_bulk
  RUN_TYPE ENERGY_FORCE
  PRINT_LEVEL LOW
&END GLOBAL
&FORCE_EVAL
  METHOD Quickstep
  &SUBSYS
    &KIND H
      ELEMENT   H
      BASIS_SET DZVP-GTH-PBE
      POTENTIAL GTH-PBE-q1
    &END KIND
    &KIND O
      ELEMENT   O
      BASIS_SET DZVP-GTH-PBE
      POTENTIAL GTH-PBE-q6
    &END KIND
    &CELL
      A     46.937    0.000000000    0.000000000
      B     0.000000000    44.121    0.000000000
      C     0.000000000    0.000000000    45.182
    &END CELL
    &COORD

O 11.23810000 6.94370000 21.42820000
H 10.99230000 7.25305000 19.63350000
H 10.08190000 7.90220000 22.46260000
O 2.68296000 15.96040000 10.82020000
H 2.30502000 17.22130000 12.10330000
H 2.39352000 16.82670000 9.24635000
O 13.00150000 14.15600000 1.18067000
H 12.72380000 13.03720000 23.12360000
H 14.01470000 13.22640000 2.39060000
O 22.99030000 5.03050000 22.86630000
H 1.24309000 4.39228000 22.29940000
H 22.18690000 5.82971000 21.43730000
O 18.04110000 11.88610000 17.44890000
H 18.79490000 12.50670000 15.89680000
H 16.64750000 12.99140000 17.83570000
O 1.47630000 12.60300000 0.60779000
H 0.89843300 11.16230000 1.57156000
H 2.49068000 13.96850000 1.97659000
O 5.22660000 15.25210000 17.52540000
H 4.82685000 16.46180000 18.88680000
H 3.93308000 14.02300000 17.56180000
O 19.23170000 8.50384000 3.84494000
H 19.02270000 7.61496000 2.28793000
H 17.86010000 9.72307000 3.89466000
O 3.51164000 16.47050000 2.71259000
H 3.65395000 17.88580000 -0.48673900
H 5.28747000 16.20130000 3.13744000
O 14.63380000 15.97760000 13.57140000
H 13.36710000 15.94780000 14.89020000
H 14.66860000 14.25760000 12.97330000
O 16.69860000 22.31820000 10.51740000
H 16.44420000 22.80040000 8.78372000
H 18.40440000 22.74170000 10.96760000
O 5.00396000 0.32870700 7.75045000
H 6.68997000 0.32600300 6.98607000
H 3.93323000 0.69837800 6.33612000
O 3.30671000 18.62550000 21.23610000
H 4.43627000 20.06210000 20.95040000
H 0.40555900 19.62770000 21.17900000
O 19.36060000 6.43734000 19.11840000
H 18.79200000 7.81514000 18.05290000
H 18.29300000 4.95625000 18.82610000
O 8.83195000 19.44130000 20.08070000
H 10.55730000 19.58480000 19.52240000
H 8.89843000 19.53560000 21.87740000
O 13.40780000 8.71823000 8.42151000
H 14.49810000 7.26949000 8.37716000
H 14.37810000 10.07750000 9.17647000
O 8.93196000 7.83185000 5.41730000
H 10.48210000 8.37565000 6.22505000
H 7.71901000 7.52036000 6.72754000
O 21.34940000 14.00130000 7.90450000
H 22.45690000 14.20740000 9.31981000
H 21.84570000 15.29330000 6.70567000
O 7.68517000 7.92260000 13.23310000
H 7.85720000 6.57907000 12.01920000
H 6.14131000 8.88341000 12.76360000
O 15.61410000 5.90215000 0.43837600
H 17.18560000 5.71902000 22.92490000
H 14.45570000 6.41132000 22.46720000
O 22.99110000 4.39158000 15.48910000
H 1.15527000 4.59525000 16.38420000
H 21.69680000 5.25327000 16.44990000
O 12.33470000 8.08219000 16.30060000
H 11.21050000 7.84863000 14.87660000
H 13.70020000 6.94018000 15.92060000
O 19.25050000 17.82300000 15.32690000
H 20.66620000 16.70130000 14.87260000
H 17.74750000 16.91150000 14.82500000
O 9.40953000 21.73340000 12.08130000
H 10.99440000 22.21470000 12.85100000
H 9.86461000 20.69050000 10.66510000
O 10.62550000 19.07330000 7.55373000
H 10.71650000 20.66860000 6.71611000
H 12.35770000 18.40130000 7.56213000
O 4.37053000 7.70867000 7.52790000
H 2.83471000 8.57038000 6.95568000
H 3.95563000 6.29961000 8.58606000
O 10.01530000 3.60760000 9.79292000
H 11.16410000 3.32230000 11.20520000
H 6.57909000 2.80110000 11.07300000
O 8.18698000 1.86093000 4.18868000
H 8.30915000 3.63863000 4.16730000
H 8.14348000 1.24808000 2.37553000
O 19.18360000 4.72924000 7.17878000
H 17.82630000 3.50684000 6.96049000
H 18.79300000 6.12299000 6.04688000
O 9.77274000 14.97690000 15.27800000
H 9.65565000 15.36290000 13.53560000
H 8.08209000 14.98350000 15.98100000
O 23.32440000 2.22527000 6.08042000
H 21.90820000 3.36350000 6.42436000
H 22.64430000 1.18505000 4.74866000
O 15.47530000 12.43570000 5.14537000
H 13.95190000 11.68350000 5.75850000
H 15.55800000 14.08230000 5.97714000
O 13.86950000 4.34674000 13.26460000
H 15.47560000 4.78330000 12.52930000
H 14.08270000 2.75543000 14.11010000
O 19.41180000 19.13370000 5.62311000
H 20.14590000 20.71970000 6.09807000
H 18.41600000 19.46790000 4.13090000
O 21.94640000 19.76090000 20.82740000
H 21.58630000 20.77430000 19.33580000
H 21.23710000 17.77670000 20.77520000
O 4.20475000 3.80651000 11.08530000
H 3.89439000 3.60605000 12.91620000
H 4.06626000 2.42297000 9.76955000
O 16.25500000 18.90960000 0.84476400
H 16.24610000 17.08470000 0.67360100
H 17.84920000 19.34870000 23.45220000
O 17.06060000 11.26660000 11.34660000
H 18.19510000 11.91200000 10.08160000
H 17.51390000 9.52398000 11.61640000
O 2.14425000 19.34000000 6.89389000
H 3.22826000 20.75620000 7.30823000
H 2.90958000 18.44990000 5.44604000
O 10.23930000 2.25716000 20.93600000
H 10.04710000 3.98757000 21.51030000
H 11.97340000 1.94392000 21.37520000
O 14.01370000 0.76187500 1.72739000
H 15.64010000 23.49080000 1.24779000
H 14.35370000 2.49986000 2.15012000
O 20.57710000 15.07390000 21.81550000
H 19.87140000 14.03510000 20.46880000
H 23.42160000 13.53330000 23.18550000
O 15.88930000 2.26555000 19.05040000
H 14.13640000 2.52797000 18.68030000
H 16.38300000 0.85458600 18.00240000
O 12.68870000 13.05150000 18.73840000
H 11.69460000 14.19460000 17.78410000
H 12.69390000 11.54810000 17.79710000
O 2.43140000 10.57420000 18.80830000
H 2.39377000 10.18460000 20.60770000
H 3.47561000 9.40540000 17.85930000
O 13.77140000 22.76620000 14.57160000
H 14.55510000 22.93780000 12.91650000
H 14.63470000 21.33910000 15.29840000
O 4.95534000 5.66790000 22.17390000
H 5.32327000 5.96503000 20.41180000
H 5.69841000 7.01498000 23.17370000
O 19.14130000 6.02028000 12.17580000
H 20.38310000 5.00518000 13.00540000
H 19.61240000 5.90396000 10.39720000
O 15.09510000 16.86600000 8.18026000
H 14.78750000 16.62060000 9.96444000
H 16.69040000 17.76570000 8.04013000
O 6.01521000 22.67220000 16.25950000
H 6.48247000 21.42050000 17.50720000
H 7.03632000 22.22660000 14.79460000
O 7.30570000 9.69023000 1.27186000
H 7.11067000 11.34350000 0.54905400
H 7.36545000 9.91093000 3.10206000
O 10.76440000 12.87490000 9.21119000
H 9.85022000 14.18340000 8.39161000
H 10.26850000 11.31930000 8.39315000
O 5.42996000 4.84249000 16.46680000
H 6.28592000 3.21097000 16.62530000
H 6.63335000 6.04062000 15.71620000
O 22.19650000 22.75570000 11.43120000
H 22.68580000 21.37490000 10.39800000
H 23.42210000 0.68177000 11.08180000
O 5.96526000 23.25230000 22.01510000
H 4.80339000 1.26507000 22.17260000
H 7.56417000 0.69430500 21.52260000
O 19.95040000 22.77070000 16.95620000
H 20.66050000 0.12685300 15.43540000
H 19.72910000 20.99640000 16.49110000
O 14.00820000 19.55290000 18.88540000
H 15.45610000 18.96120000 17.98310000
H 14.43530000 19.51790000 20.64290000
O 14.54470000 2.50580000 7.00528000
H 12.96690000 2.88304000 7.93371000
H 14.06410000 1.46608000 5.59650000
O 8.71212000 15.87950000 3.74648000
H 10.28780000 15.21660000 3.07912000
H 9.15589000 17.37970000 4.68060000
O 22.89840000 13.57240000 14.94990000
H 24.16280000 11.13540000 17.83940000
H 0.77227300 13.36870000 13.59470000
O 0.62232700 10.11170000 5.36790000
H 23.06360000 8.65005000 4.79119000
H 22.77660000 11.00620000 6.46182000
O 1.87654000 19.01370000 15.21460000
H 2.78255000 20.57150000 15.42470000
H 2.69207000 17.79690000 16.30570000
O 20.88130000 0.33999600 1.35665000
H 21.01580000 22.51010000 -0.00530300
H 21.82090000 1.79743000 0.76451400
O 3.99201000 10.64090000 11.42640000
H 3.87906000 9.22225000 10.26200000
H 5.04480000 11.80910000 10.49110000
    
    &END COORD
  &END SUBSYS
  &DFT
    BASIS_SET_FILE_NAME  BASIS_SET
    POTENTIAL_FILE_NAME  GTH_POTENTIALS
    &QS
      EPS_DEFAULT 1.0E-10
    &END QS
    &MGRID
      NGRIDS 4
      CUTOFF 135
      REL_CUTOFF 115
    &END MGRID
    &XC
      &XC_FUNCTIONAL PADE
      &END XC_FUNCTIONAL
    &END XC
    &SCF
      SCF_GUESS ATOMIC
      EPS_SCF 1.0E-7
      MAX_SCF 300
      &DIAGONALIZATION  ON
        ALGORITHM STANDARD
      &END DIAGONALIZATION
      &MIXING  T
        METHOD BROYDEN_MIXING
        ALPHA 0.4
        NBROYDEN 8
      &END MIXING
    &END SCF
  &END DFT
  &PRINT
    &FORCES ON
    &END FORCES
  &END PRINT
&END FORCE_EVAL
