&GLOBAL
  PROJECT H2O_bulk
  RUN_TYPE ENERGY_FORCE
  PRINT_LEVEL LOW
&END GLOBAL
&FORCE_EVAL
  METHOD Quickstep
  &SUBSYS
    &KIND H
      ELEMENT   H
      BASIS_SET DZVP-GTH-PBE
      POTENTIAL GTH-PBE-q1
    &END KIND
    &KIND O
      ELEMENT   O
      BASIS_SET DZVP-GTH-PBE
      POTENTIAL GTH-PBE-q6
    &END KIND
    &CELL
      A     46.937    0.000000000    0.000000000
      B     0.000000000    44.121    0.000000000
      C     0.000000000    0.000000000    45.182
    &END CELL
    &COORD

O 4.27460000 4.97934000 23.21170000
H 6.18247000 6.67649000 23.54950000
H 2.98978000 6.01984000 22.62730000
O 17.90340000 1.44152000 1.78446000
H 16.42140000 1.76565000 0.91690300
H 17.75580000 2.56046000 3.32625000
O 17.29860000 18.06300000 22.38840000
H 17.82290000 18.26570000 0.16757600
H 16.64220000 19.73630000 22.20310000
O 18.86110000 20.50520000 2.36970000
H 18.85510000 22.70650000 1.39276000
H 17.70210000 20.82580000 3.74256000
O 5.86707000 21.89870000 9.95723000
H 5.59613000 21.02810000 8.55345000
H 5.97310000 20.90660000 11.74810000
O 18.13910000 17.59310000 8.75624000
H 19.48950000 18.88740000 9.11903000
H 16.68060000 18.62970000 8.15198000
O 10.79980000 17.08370000 4.21569000
H 12.65030000 17.00760000 2.76938000
H 9.98268000 15.69090000 4.70540000
O 23.65940000 18.49290000 4.16948000
H 21.94970000 19.10790000 3.81657000
H -0.27275100 18.22060000 2.35471000
O 16.16100000 11.71870000 3.32282000
H 17.48730000 11.52280000 4.55116000
H 14.42550000 11.51980000 4.90959000
O 22.76850000 13.24620000 13.94500000
H 21.97680000 11.70040000 13.31270000
H 22.78240000 14.58310000 12.60850000
O 2.80412000 6.72892000 11.28170000
H 3.33687000 4.98226000 11.53500000
H 2.76502000 6.64797000 9.33374000
O 17.91250000 0.72073600 17.23760000
H 18.85440000 1.07532000 18.72530000
H 17.14690000 23.51850000 17.19750000
O 4.64967000 1.69866000 18.41550000
H 3.65400000 1.55699000 19.89740000
H 5.80492000 2.92312000 18.76190000
O 22.72830000 1.44389000 6.20319000
H 22.15170000 1.55811000 4.68325000
H 22.86330000 3.04505000 7.29267000
O 8.49643000 8.93620000 4.68789000
H 6.73867000 8.31849000 5.01693000
H 8.24763000 10.73250000 5.11213000
O 15.56880000 8.52253000 11.82160000
H 15.49140000 7.00437000 10.92650000
H 15.25640000 7.94357000 13.77380000
O 13.92300000 -0.19152200 9.88185000
H 12.96660000 0.78996300 11.09310000
H 15.54670000 0.17437700 10.40640000
O 13.12030000 12.29340000 7.99522000
H 13.02870000 10.75890000 9.02986000
H 11.94390000 13.86000000 8.49932000
O 21.65290000 21.63390000 10.31900000
H 20.62860000 22.38960000 11.48440000
H 21.37050000 22.57770000 8.66363000
O 0.72337200 17.87910000 10.99380000
H 2.31698000 18.47180000 12.33890000
H -0.49789400 19.18940000 10.64580000
O 5.69702000 11.70090000 23.32680000
H 6.66768000 13.61170000 22.36950000
H 6.43039000 11.13510000 0.88478900
O 14.83890000 20.43450000 6.09546000
H 14.46050000 21.63310000 7.56260000
H 12.90290000 19.07670000 6.15261000
O 7.41309000 21.87190000 18.33730000
H 6.76790000 23.57950000 18.48250000
H 7.37603000 21.35630000 19.97280000
O 4.76648000 2.01117000 12.94250000
H 4.65077000 0.71749300 11.69830000
H 4.26414000 1.70186000 14.55470000
O 10.78650000 15.41000000 11.78420000
H 11.56040000 16.39240000 13.21780000
H 8.28307000 14.48380000 13.26730000
O 20.55960000 9.88308000 9.49584000
H 18.54350000 10.16710000 10.05600000
H 20.70190000 11.47460000 8.14513000
O 0.42281500 23.06990000 21.13820000
H 23.30420000 23.45720000 22.34110000
H 0.10600100 23.86010000 19.61280000
O 22.51680000 11.10560000 23.12160000
H 22.20010000 12.54720000 22.09580000
H 24.22590000 10.30590000 22.80640000
O 18.15940000 8.47791000 21.01550000
H 17.78850000 9.11809000 19.36230000
H 19.33280000 9.48630000 22.22030000
O 3.70092000 17.33340000 6.66295000
H 2.57003000 17.46350000 8.84410000
H 2.18065000 17.31750000 5.46506000
O 22.49240000 21.86880000 16.56490000
H 22.69560000 22.73980000 14.91610000
H 20.90370000 22.68270000 16.66520000
O 12.13760000 22.43950000 15.30880000
H 10.48680000 21.47460000 15.69750000
H 13.53100000 21.49410000 14.67230000
O 12.53820000 17.43080000 17.91680000
H 13.33660000 16.18450000 16.91010000
H 10.25420000 17.37470000 17.50010000
O 7.78445000 2.31058000 6.43061000
H 5.94577000 2.51310000 5.86502000
H 7.51735000 0.98095900 7.61684000
O 9.44576000 20.47710000 23.18400000
H 9.86902000 21.45110000 0.50538100
H 10.88460000 20.59820000 22.28960000
O 10.08030000 6.75559000 20.63910000
H 11.28110000 6.86869000 21.89440000
H 11.41570000 5.92389000 19.36200000
O 3.75169000 6.94261000 5.81366000
H 2.25492000 8.24719000 5.18803000
H 3.72369000 5.63590000 4.02428000
O 10.84140000 -0.30656100 2.98776000
H 11.94340000 22.67970000 3.73686000
H 9.29876000 -0.15343400 4.32323000
O 13.50840000 5.42614000 6.58731000
H 12.66070000 3.82167000 7.20801000
H 12.47600000 6.06718000 4.96954000
O 16.97010000 12.35390000 16.80530000
H 15.26370000 12.30770000 16.85190000
H 17.42940000 12.42970000 15.11710000
O 14.44510000 22.11500000 20.66790000
H 13.22860000 22.06400000 19.46750000
H 13.55240000 23.50510000 21.86380000
O 2.73409000 10.25830000 15.19500000
H 2.74606000 9.24873000 13.68200000
H 1.07111000 11.40840000 14.54610000
O 10.18660000 11.70160000 18.63020000
H 10.54570000 12.68180000 19.92930000
H 9.89782000 10.10770000 19.41630000
O 7.12002000 13.74840000 14.82130000
H 5.62282000 12.72750000 15.82170000
H 8.55287000 13.07200000 16.07260000
O 12.90580000 14.50640000 0.46869100
H 13.73660000 13.10290000 1.07136000
H 13.97520000 15.40460000 23.80180000
O 2.06220000 8.90420000 20.26980000
H 2.36782000 9.74274000 18.22410000
H 3.66998000 9.43669000 20.83350000
O 20.15990000 14.04320000 6.18623000
H 19.22440000 15.20430000 7.21094000
H 22.07150000 14.36720000 5.68023000
O 1.58020000 18.04220000 23.02240000
H 1.13321000 19.52200000 22.11280000
H 0.62761000 16.89570000 21.83310000
O 7.37011000 13.74150000 6.64753000
H 6.07649000 15.05990000 6.70104000
H 8.01365000 13.59050000 8.30034000
O 19.44490000 3.78384000 21.11030000
H 18.76810000 2.83357000 22.49750000
H 18.95270000 5.50428000 20.87490000
O 22.94580000 6.00899000 2.66697000
H 22.51130000 7.66688000 6.29114000
H 21.17530000 5.78100000 2.69374000
O 13.51730000 5.04716000 16.18240000
H 12.32270000 4.31996000 14.71650000
H 14.35100000 3.40747000 16.39970000
O 22.34990000 4.98777000 10.17230000
H -0.36477400 4.88930000 10.76490000
H 22.00600000 6.83321000 10.57110000
O 13.23430000 2.14369000 23.69990000
H 11.88490000 1.94125000 0.59065600
H 13.96280000 3.93521000 -0.24987900
O 7.07190000 15.86780000 21.31590000
H 8.25393000 16.90860000 22.33490000
H 5.91972000 17.30870000 21.16900000
O 21.21370000 15.33390000 20.08880000
H 19.32290000 15.96700000 20.29870000
H 20.48450000 13.63370000 18.59020000
O 0.68529800 11.42550000 3.67831000
H 1.53712000 12.40040000 2.69776000
H -0.18270100 10.31870000 2.80088000
O 3.22776000 1.63244000 3.54257000
H 2.97344000 2.86504000 2.10810000
H 1.78513000 1.39937000 4.44738000
O 14.33430000 7.64483000 -0.31191100
H 15.91450000 7.78352000 22.81430000
H 14.36790000 8.62239000 1.13220000
O 5.14245000 18.73470000 14.77770000
H 5.66416000 20.42650000 15.03800000
H 6.28106000 17.30470000 14.84880000
O 18.02310000 5.95637000 5.02656000
H 16.84110000 5.20178000 6.07266000
H 16.68590000 7.98729000 3.86404000
O 10.20840000 4.31732000 11.81850000
H 9.08036000 3.21395000 12.37350000
H 9.72430000 5.20591000 10.16580000
O 16.02810000 17.24650000 13.93890000
H 16.43770000 16.63880000 12.24100000
H 17.27250000 17.35860000 15.00770000
O 18.64160000 1.60316000 11.97600000
H 18.73160000 1.67125000 13.77610000
H 20.07700000 2.53804000 10.90680000
    
    &END COORD
  &END SUBSYS
  &DFT
    BASIS_SET_FILE_NAME  BASIS_SET
    POTENTIAL_FILE_NAME  GTH_POTENTIALS
    &QS
      EPS_DEFAULT 1.0E-10
    &END QS
    &MGRID
      NGRIDS 4
      CUTOFF 135
      REL_CUTOFF 115
    &END MGRID
    &XC
      &XC_FUNCTIONAL PADE
      &END XC_FUNCTIONAL
    &END XC
    &SCF
      SCF_GUESS ATOMIC
      EPS_SCF 1.0E-7
      MAX_SCF 300
      &DIAGONALIZATION  ON
        ALGORITHM STANDARD
      &END DIAGONALIZATION
      &MIXING  T
        METHOD BROYDEN_MIXING
        ALPHA 0.4
        NBROYDEN 8
      &END MIXING
    &END SCF
  &END DFT
  &PRINT
    &FORCES ON
    &END FORCES
  &END PRINT
&END FORCE_EVAL
