&GLOBAL
  PROJECT H2O_bulk
  RUN_TYPE ENERGY_FORCE
  PRINT_LEVEL LOW
&END GLOBAL
&FORCE_EVAL
  METHOD Quickstep
  &SUBSYS
    &KIND H
      ELEMENT   H
      BASIS_SET DZVP-GTH-PBE
      POTENTIAL GTH-PBE-q1
    &END KIND
    &KIND O
      ELEMENT   O
      BASIS_SET DZVP-GTH-PBE
      POTENTIAL GTH-PBE-q6
    &END KIND
    &CELL
      A     46.937    0.000000000    0.000000000
      B     0.000000000    44.121    0.000000000
      C     0.000000000    0.000000000    45.182
    &END CELL
    &COORD

O 6.56769000 7.97286000 0.75786500
H 6.07379000 8.02647000 23.66450000
H 6.14967000 6.33377000 1.42938000
O 16.54840000 4.69615000 19.51340000
H 16.00830000 3.45987000 20.93050000
H 14.86250000 5.61450000 19.48860000
O 2.57247000 17.91580000 1.67192000
H 3.65637000 17.85940000 0.16851200
H 2.71374000 19.23450000 2.73267000
O 20.34190000 20.87780000 4.02723000
H 21.06110000 19.53130000 4.70624000
H 18.71050000 20.15910000 3.29527000
O 3.68138000 23.21320000 4.28938000
H 4.77761000 23.51870000 3.06883000
H 2.65067000 -0.00450300 4.19314000
O 22.09400000 9.74377000 8.83313000
H 21.68580000 9.36826000 7.16908000
H 21.18790000 8.87347000 9.99148000
O 7.95964000 2.10008000 2.75580000
H 9.21242000 3.03926000 3.66219000
H 6.57321000 2.50376000 3.77439000
O 16.26010000 0.60003900 15.13870000
H 17.06780000 2.19081000 15.64750000
H 16.73750000 0.08364200 13.41080000
O 2.62024000 9.95936000 10.94080000
H 2.57316000 9.83453000 12.60520000
H 1.04614000 9.91530000 9.82792000
O 13.27590000 17.03130000 14.17070000
H 13.72150000 18.28430000 15.50840000
H 11.59510000 16.78900000 14.37670000
O 0.44940100 15.71510000 20.01550000
H -0.07749200 14.80140000 18.63070000
H -0.44353900 17.20440000 20.35810000
O 22.87950000 -0.05067100 15.62620000
H -0.01893400 -0.27101400 16.12720000
H 22.32830000 22.78480000 15.79370000
O 23.79090000 18.09810000 7.54552000
H -0.50811500 19.61130000 8.43883000
H 0.88751100 17.67710000 7.29007000
O 5.75475000 14.52910000 19.83800000
H 5.86850000 12.85130000 19.38000000
H 3.73900000 14.88690000 19.53280000
O 10.93120000 18.63130000 2.82497000
H 10.24850000 19.87550000 4.03901000
H 10.54040000 16.82470000 3.45752000
O 8.41122000 17.29320000 15.83880000
H 8.08274000 16.04150000 17.11650000
H 7.18295000 17.34000000 14.66090000
O 10.87250000 16.89350000 9.12825000
H 12.17030000 16.97800000 10.37950000
H 11.36550000 18.62250000 8.50887000
O 23.71890000 5.46358000 -0.47648300
H 23.47700000 6.53301000 1.74129000
H -0.03258500 5.84799000 22.75290000
O 16.77550000 9.78370000 4.33635000
H 15.04830000 10.16480000 3.56928000
H 15.93600000 8.42025000 5.06658000
O 20.61440000 19.91600000 18.58640000
H 16.65330000 21.12020000 18.98900000
H 20.35010000 18.15530000 17.93670000
O 21.00540000 4.89054000 16.44830000
H 19.55530000 4.67532000 17.43710000
H 21.22050000 2.91578000 16.04580000
O 12.43970000 8.30561000 0.71685500
H 10.61130000 8.85983000 1.11679000
H 12.86480000 7.16443000 2.09310000
O 6.98515000 18.42290000 23.27800000
H 7.07707000 17.04290000 22.06220000
H 7.85741000 18.00700000 0.21397200
O 0.00784100 8.47238000 18.83140000
H 0.01469700 7.12783000 17.64370000
H 23.12390000 8.63407000 19.73800000
O 6.22507000 4.58842000 7.25675000
H 6.86100000 6.45753000 7.26937000
H 7.82363000 3.79985000 7.78828000
O -0.28809200 22.57640000 10.09760000
H 22.88640000 23.21240000 11.42040000
H 0.16245300 -0.17220300 9.62540000
O 0.19420000 12.32090000 15.64210000
H -0.01467700 10.87710000 16.66250000
H 23.70940000 13.55780000 14.98220000
O -0.54490300 12.91430000 0.80351500
H -0.71115200 13.36990000 23.61880000
H 0.28670900 14.03650000 1.71852000
O 21.76940000 9.22349000 3.50740000
H 21.87710000 10.70620000 2.22622000
H 20.03580000 9.02289000 3.54934000
O 6.15043000 16.92200000 11.19700000
H 5.40148000 16.75140000 9.41897000
H 7.89062000 16.45340000 10.85570000
O 17.27910000 14.43190000 23.04490000
H 18.27510000 15.90590000 22.44790000
H 17.74900000 12.67870000 22.76690000
O 8.68925000 1.12280000 21.93850000
H 7.54627000 1.06652000 20.75140000
H 8.04639000 1.93582000 23.51680000
O 19.28490000 16.88570000 10.84420000
H 20.91110000 16.58790000 9.98467000
H 17.93370000 16.04410000 9.28451000
O 10.98400000 2.40881000 15.59360000
H 10.03890000 1.90385000 16.95610000
H 12.58250000 1.32663000 15.46920000
O 17.34650000 22.00090000 10.41020000
H 18.77780000 22.26460000 9.51440000
H 17.76180000 20.26800000 10.45120000
O 15.50990000 20.50320000 17.84760000
H 14.67330000 20.33730000 19.62130000
H 15.56550000 22.29940000 17.63510000
O 16.19340000 1.14758000 23.80730000
H 17.68600000 0.22295200 24.00420000
H 14.59370000 -1.10714000 23.07020000
O 21.45050000 0.95388400 23.72520000
H 22.03660000 24.06340000 23.00800000
H 23.37920000 2.83349000 22.87450000
O 5.60862000 12.61950000 3.30975000
H 6.32269000 10.87000000 2.79093000
H 5.48266000 12.98480000 1.45265000
O 14.24500000 8.52022000 10.42580000
H 14.37350000 10.40960000 10.21930000
H 12.72360000 8.27824000 9.15721000
O 2.90668000 23.86840000 18.47940000
H 1.65845000 23.03910000 19.41720000
H 5.00845000 21.43320000 18.63550000
O 19.44220000 8.49711000 22.24800000
H 20.76320000 7.33918000 23.40900000
H 18.20270000 7.72641000 21.38690000
O 5.45035000 9.06588000 20.13920000
H 3.68000000 8.80537000 20.71880000
H 5.94620000 8.12252000 18.66680000
O 12.82680000 22.23380000 22.29730000
H 12.78070000 21.65850000 23.89580000
H 11.50540000 23.45750000 21.88460000
O -0.19442200 20.79570000 22.56270000
H -0.21453300 19.46960000 23.48060000
H 22.87250000 20.77410000 21.35820000
O 17.17050000 12.78600000 8.41203000
H 17.10600000 13.07100000 6.65053000
H 18.70520000 12.01310000 8.40060000
O 3.14194000 14.55700000 7.58521000
H 3.85647000 13.86120000 5.35628000
H 2.78419000 13.12460000 8.36353000
O 2.84266000 4.47286000 16.47680000
H 2.31732000 4.21038000 14.86100000
H 3.88114000 2.95585000 16.80840000
O 16.25130000 18.54030000 2.14853000
H 15.56170000 17.08660000 1.20637000
H 14.98740000 19.38470000 3.34905000
O 23.51510000 1.89884000 4.34237000
H 22.99240000 1.67320000 2.58775000
H 22.56650000 0.37014000 4.83415000
O 8.20094000 9.14644000 10.94990000
H 6.93494000 9.50242000 9.85521000
H 7.83437000 8.30280000 12.54370000
O 8.75045000 0.81572100 10.31340000
H 9.60840000 0.92404000 11.74970000
H 7.51664000 -0.53090300 10.35430000
O 1.58373000 4.12348000 10.76250000
H 1.61941000 6.17579000 10.78810000
H 3.43548000 3.97311000 10.50930000
O 7.95894000 6.45790000 15.64580000
H 6.24151000 6.02967000 15.90240000
H 9.56624000 6.02395000 16.25100000
O 10.83120000 22.25810000 6.64978000
H 12.23340000 23.25980000 5.98554000
H 10.33780000 23.79040000 7.61007000
O 15.37730000 13.06360000 17.89290000
H 15.08480000 13.81380000 21.05890000
H 15.26530000 14.83290000 17.20180000
O 19.11120000 6.50998000 11.98290000
H 17.59040000 7.59706000 11.64490000
H 19.09150000 5.45246000 13.50590000
O 12.90240000 8.15935000 19.72970000
H 13.79420000 9.70644000 19.38000000
H 12.75360000 8.16957000 21.49370000
O 8.09780000 22.61160000 16.57720000
H 7.99745000 21.98150000 14.87970000
H 8.54569000 20.75490000 17.26010000
O 13.46410000 3.10570000 3.42829000
H 15.41630000 3.56538000 4.78063000
H 14.64140000 2.13247000 2.02715000
O 11.03450000 13.73090000 5.00417000
H 11.17510000 13.93240000 6.88312000
H 9.56513000 12.94310000 5.17087000
O 4.89294000 21.99040000 11.60460000
H 5.12583000 20.15490000 11.69550000
H 3.10351000 22.20640000 11.37280000
O 18.71460000 4.15548000 6.24154000
H 20.18720000 3.27593000 5.29787000
H 19.14070000 4.07971000 7.89163000
O 20.04060000 14.91000000 15.58280000
H 19.03250000 13.85750000 16.65580000
H 20.23960000 15.08270000 13.65110000
    
    &END COORD
  &END SUBSYS
  &DFT
    BASIS_SET_FILE_NAME  BASIS_SET
    POTENTIAL_FILE_NAME  GTH_POTENTIALS
    &QS
      EPS_DEFAULT 1.0E-10
    &END QS
    &MGRID
      NGRIDS 4
      CUTOFF 135
      REL_CUTOFF 115
    &END MGRID
    &XC
      &XC_FUNCTIONAL PADE
      &END XC_FUNCTIONAL
    &END XC
    &SCF
      SCF_GUESS ATOMIC
      EPS_SCF 1.0E-7
      MAX_SCF 300
      &DIAGONALIZATION  ON
        ALGORITHM STANDARD
      &END DIAGONALIZATION
      &MIXING  T
        METHOD BROYDEN_MIXING
        ALPHA 0.4
        NBROYDEN 8
      &END MIXING
    &END SCF
  &END DFT
  &PRINT
    &FORCES ON
    &END FORCES
  &END PRINT
&END FORCE_EVAL
