&GLOBAL
  PROJECT H2O_bulk
  RUN_TYPE ENERGY_FORCE
  PRINT_LEVEL LOW
&END GLOBAL
&FORCE_EVAL
  METHOD Quickstep
  &SUBSYS
    &KIND H
      ELEMENT   H
      BASIS_SET DZVP-GTH-PBE
      POTENTIAL GTH-PBE-q1
    &END KIND
    &KIND O
      ELEMENT   O
      BASIS_SET DZVP-GTH-PBE
      POTENTIAL GTH-PBE-q6
    &END KIND
    &CELL
      A     46.937    0.000000000    0.000000000
      B     0.000000000    44.121    0.000000000
      C     0.000000000    0.000000000    45.182
    &END CELL
    &COORD

O 14.52250000 24.19640000 2.20771000
H 13.19910000 23.39480000 1.18987000
H 14.50780000 23.27320000 3.79170000
O 7.89202000 12.16470000 0.59832000
H 7.10517000 13.73870000 1.10107000
H 6.81870000 10.94550000 1.43306000
O 6.24773000 20.88140000 19.05500000
H 5.49937000 21.27330000 17.41740000
H 7.08399000 22.42220000 19.50550000
O 1.60449000 3.22384000 5.66677000
H 0.81008700 1.79053000 4.84165000
H 2.86192000 3.63134000 4.42314000
O 18.73140000 24.18400000 11.33250000
H 18.71410000 22.66300000 10.35100000
H 17.00450000 24.71120000 11.34600000
O 7.52823000 21.02990000 3.63433000
H 6.37577000 22.28840000 2.98979000
H 7.52176000 21.41730000 5.56119000
O 12.56610000 8.56366000 13.76930000
H 12.94890000 9.90794000 12.62510000
H 14.06530000 7.52584000 13.62640000
O 3.30568000 7.58405000 8.78332000
H 2.85191000 5.89434000 8.26876000
H 4.29084000 7.49000000 10.30470000
O 5.51709000 10.37000000 18.32430000
H 6.51281000 11.41940000 19.43960000
H 5.36473000 8.77569000 19.17470000
O 23.32300000 6.61014000 14.15260000
H 23.35030000 5.19735000 15.30820000
H 22.26460000 6.11627000 12.73380000
O 15.84650000 12.86770000 22.34390000
H 16.98980000 12.27000000 21.06750000
H 14.20150000 13.08630000 21.57970000
O 5.11076000 1.60724000 2.11721000
H 6.70667000 2.02062000 1.34817000
H 4.11894000 0.78264800 0.83359000
O 1.51305000 21.79390000 21.92550000
H 3.17377000 21.74250000 21.17010000
H 0.12872500 21.92030000 20.64080000
O 21.74340000 6.75295000 1.01946000
H 20.22740000 6.18343000 0.19006000
H 22.59240000 5.21725000 1.53900000
O 19.80170000 16.85770000 1.70308000
H 21.18360000 15.68390000 1.51012000
H 20.52810000 18.24080000 2.62427000
O 6.52592000 3.86014000 18.21690000
H 7.16708000 5.06505000 17.00070000
H 4.79073000 4.31972000 18.53890000
O 21.16780000 12.55070000 20.68060000
H 22.22620000 12.68920000 19.21000000
H 22.24440000 11.88210000 21.98680000
O 1.23633000 15.98770000 9.63890000
H 0.30957200 14.44900000 9.26521000
H 2.55016000 15.48310000 10.76620000
O 22.56280000 11.79070000 2.55840000
H 21.82970000 10.11520000 2.45397000
H 22.71390000 12.09030000 4.34618000
O 3.32357000 8.32037000 -0.52129400
H 2.38343000 9.77534000 0.04300600
H 4.18850000 7.77840000 0.97703100
O 13.51050000 17.78210000 6.27371000
H 13.85860000 16.55440000 4.93198000
H 11.73430000 17.84890000 6.57563000
O 6.03986000 16.27360000 3.34320000
H 4.52666000 16.40480000 2.28828000
H 6.44896000 18.06940000 3.63888000
O 19.42930000 13.35230000 14.05270000
H 17.90090000 13.46040000 15.06590000
H 20.44980000 12.12440000 14.90490000
O 22.35420000 1.44140000 2.10934000
H 22.05550000 0.50634200 0.58524000
H 21.41950000 0.58579300 3.42665000
O 15.43670000 14.29810000 3.37521000
H 17.01830000 14.86480000 4.06578000
H 15.77800000 14.04620000 1.58029000
O 12.08110000 1.15754000 8.67921000
H 10.63760000 1.97450000 7.92401000
H 11.49150000 0.83307200 10.35570000
O 19.60830000 18.73570000 13.17400000
H 20.35590000 17.08500000 13.23520000
H 20.97860000 19.75700000 12.40160000
O 11.29400000 7.30828000 0.64149900
H 9.81309000 6.53413000 -0.08596800
H 10.85180000 8.87631000 1.42437000
O 0.96777600 4.37626000 20.37490000
H 1.17318000 5.51726000 21.78140000
H -0.83376100 4.06680000 20.25290000
O 2.84349000 15.11870000 14.85560000
H 1.71297000 13.57150000 14.80940000
H 3.30045000 15.20230000 16.62050000
O 3.49504000 23.34750000 14.91530000
H 2.03098000 24.31550000 15.40680000
H 3.77357000 23.85450000 13.14980000
O 14.91270000 18.62730000 14.91600000
H 16.32420000 19.17380000 13.89030000
H 15.20130000 16.82880000 14.99370000
O 9.89299000 20.62670000 14.53300000
H 8.95717000 22.13130000 14.06770000
H 11.64920000 21.07200000 14.32320000
O 10.83700000 22.08420000 23.49720000
H 11.36970000 20.84550000 22.25550000
H 9.63929000 21.35350000 24.69460000
O 17.66260000 7.47800000 14.43970000
H 18.71300000 7.15567000 12.98090000
H 18.38150000 6.41415000 15.71420000
O 11.96300000 18.51780000 19.43400000
H 13.64820000 18.30930000 18.74340000
H 11.08230000 19.40330000 18.10700000
O 11.93410000 11.48610000 5.69445000
H 10.22940000 11.89100000 6.06004000
H 12.79440000 12.99760000 5.11102000
O 21.70940000 1.01558000 15.51730000
H 20.45920000 1.69695000 16.66380000
H 20.88980000 -0.32612500 14.61460000
O 9.51911000 1.98360000 14.23130000
H 8.28931000 2.54318000 15.46200000
H 9.87010000 3.45971000 13.24440000
O 20.72150000 22.44810000 6.22862000
H 20.88890000 22.17580000 8.01347000
H 18.91550000 22.27050000 5.90990000
O 19.76350000 3.47027000 19.56250000
H 18.65380000 4.89349000 19.67720000
H 19.20020000 2.17743000 20.77730000
O 23.70620000 11.21730000 7.96264000
H 21.90390000 11.16020000 8.16086000
H 24.58390000 9.59391000 8.42367000
O 18.86920000 23.04220000 22.18620000
H 18.80900000 21.27510000 21.56940000
H 17.60250000 23.15280000 23.48700000
O 18.39380000 18.26580000 20.94730000
H 19.88470000 17.42780000 20.34790000
H 18.32000000 17.73430000 22.71480000
O -0.49549700 20.72870000 10.71760000
H 0.86823100 21.52580000 11.62190000
H 0.15354000 19.09910000 10.18500000
O 7.68433000 21.89800000 8.46111000
H 7.70299000 16.06290000 10.91970000
H 9.46409000 22.21380000 8.37936000
O 14.25440000 8.07756000 8.41072000
H 13.71590000 6.49543000 7.66401000
H 13.13570000 9.31993000 7.64424000
O 0.62036400 10.89330000 16.30850000
H 0.04782200 9.34063000 15.45350000
H 2.36151000 10.59820000 16.79490000
O 16.00040000 21.86700000 6.83168000
H 15.05190000 20.26690000 6.90358000
H 15.25430000 23.07150000 7.95578000
O 18.45100000 11.87620000 8.93635000
H 17.37400000 10.40900000 8.78368000
H 18.37940000 12.39360000 10.69270000
O 16.24420000 5.33419000 0.06172000
H 15.56990000 3.65350000 -0.01814900
H 14.81150000 6.32383000 0.61408000
O 7.31039000 17.22070000 12.25270000
H 6.00040000 16.67130000 13.42870000
H 8.63574000 18.41640000 12.97670000
O 5.44274000 9.88618000 4.40409000
H 6.91182000 10.85070000 4.80480000
H 4.72335000 9.31867000 5.98748000
O 11.11380000 13.07880000 20.27380000
H 10.67030000 14.80720000 19.89040000
H 10.79290000 12.89730000 22.06000000
O 3.54170000 0.40380600 9.96886000
H 5.11473000 -0.35057200 9.26044000
H 3.23108000 1.90998000 9.01056000
O 4.59392000 15.97440000 20.07840000
H 3.25697000 15.26830000 21.07510000
H 5.26156000 17.28630000 21.14180000
O 12.93820000 4.57798000 4.81161000
H 13.11850000 5.98517000 3.68598000
H 13.18250000 3.14763000 3.69047000
O 1.92459000 17.08180000 0.75341100
H 1.28034000 17.37930000 2.45286000
H 1.92980000 18.74970000 -0.00348700
O 14.81260000 13.46240000 16.06970000
H 14.30700000 12.49290000 17.52060000
H 14.02520000 12.67940000 14.64610000
O 7.91691000 14.87880000 7.78871000
H 6.88845000 16.37940000 7.81584000
H 7.80445000 14.59710000 5.97151000
O 23.53050000 18.16060000 5.23486000
H 23.03350000 19.66540000 6.14033000
H 23.38920000 16.79610000 6.40217000
O 20.36790000 5.15431000 10.24070000
H 20.09460000 3.36083000 10.55950000
H 19.10120000 5.69023000 9.05869000
O 7.51427000 7.37044000 14.56080000
H 6.24037000 8.29480000 15.47130000
H 9.05546000 8.22543000 15.04790000
O 9.22720000 2.93327000 22.24890000
H 10.20030000 1.59952000 23.00620000
H 9.65380000 2.82659000 20.46450000
    
    &END COORD
  &END SUBSYS
  &DFT
    BASIS_SET_FILE_NAME  BASIS_SET
    POTENTIAL_FILE_NAME  GTH_POTENTIALS
    &QS
      EPS_DEFAULT 1.0E-10
    &END QS
    &MGRID
      NGRIDS 4
      CUTOFF 135
      REL_CUTOFF 115
    &END MGRID
    &XC
      &XC_FUNCTIONAL PADE
      &END XC_FUNCTIONAL
    &END XC
    &SCF
      SCF_GUESS ATOMIC
      EPS_SCF 1.0E-7
      MAX_SCF 300
      &DIAGONALIZATION  ON
        ALGORITHM STANDARD
      &END DIAGONALIZATION
      &MIXING  T
        METHOD BROYDEN_MIXING
        ALPHA 0.4
        NBROYDEN 8
      &END MIXING
    &END SCF
  &END DFT
  &PRINT
    &FORCES ON
    &END FORCES
  &END PRINT
&END FORCE_EVAL
