&GLOBAL
  PROJECT H2O_bulk
  RUN_TYPE ENERGY_FORCE
  PRINT_LEVEL LOW
&END GLOBAL
&FORCE_EVAL
  METHOD Quickstep
  &SUBSYS
    &KIND H
      ELEMENT   H
      BASIS_SET DZVP-GTH-PBE
      POTENTIAL GTH-PBE-q1
    &END KIND
    &KIND O
      ELEMENT   O
      BASIS_SET DZVP-GTH-PBE
      POTENTIAL GTH-PBE-q6
    &END KIND
    &CELL
      A     46.937    0.000000000    0.000000000
      B     0.000000000    44.121    0.000000000
      C     0.000000000    0.000000000    45.182
    &END CELL
    &COORD

O 7.18712000 12.61690000 1.03298000
H 6.61915000 13.82860000 23.11360000
H 6.90044000 11.08680000 23.40160000
O 22.60780000 17.53180000 11.93380000
H 22.62830000 17.09330000 13.67960000
H 0.37008000 18.97780000 11.69580000
O 7.02474000 15.86420000 16.33070000
H 5.71063000 14.65320000 15.84050000
H 6.41374000 16.50690000 17.93540000
O 20.62530000 1.43545000 5.77610000
H 20.49630000 -0.08944200 6.74930000
H 18.93490000 2.02748000 5.64219000
O 12.27380000 14.80770000 15.83490000
H 13.15080000 13.73300000 17.06100000
H 10.70940000 15.28570000 16.64120000
O 2.06774000 8.63636000 18.70110000
H 1.94121000 7.23021000 17.55130000
H 3.06123000 8.04393000 20.10570000
O 10.20320000 0.29976500 19.41890000
H 11.43840000 23.15910000 20.65040000
H 9.01102000 22.16300000 19.34710000
O 23.44680000 13.06530000 21.05120000
H 23.10740000 12.38420000 19.38800000
H 0.01925300 11.62020000 22.15830000
O 13.21930000 16.11450000 23.23030000
H 12.26240000 15.21300000 1.15048000
H 14.45170000 17.04760000 0.87501600
O 16.89790000 15.50280000 9.83881000
H 17.44090000 14.33220000 11.10550000
H 15.17310000 14.90090000 9.69341000
O 15.82360000 19.01190000 14.59160000
H 14.64970000 17.73040000 15.13420000
H 16.05030000 18.55670000 12.84680000
O 3.11165000 20.90380000 11.13730000
H 4.78675000 20.88360000 11.87400000
H 3.46836000 20.89940000 9.31900000
O 2.61900000 18.25760000 2.51084000
H 3.16011000 19.79020000 3.37162000
H 3.93191000 17.14480000 3.05777000
O 22.80830000 7.09364000 0.40149900
H 23.65070000 5.49502000 0.39345300
H 21.49200000 6.65655000 1.57098000
O 4.08609000 3.63744000 16.27990000
H 4.95458000 2.12099000 16.66090000
H 2.42721000 2.93146000 15.86630000
O 10.94460000 8.03470000 7.24019000
H 12.05730000 8.56112000 5.91968000
H 9.84647000 9.47579000 7.16391000
O 4.44472000 5.14359000 6.11042000
H 6.08856000 5.33203000 6.99150000
H 4.61865000 4.61896000 4.41431000
O 18.26060000 6.83176000 3.67310000
H 17.32800000 8.35069000 3.33052000
H 19.29930000 7.43188000 5.04986000
O 2.90564000 3.21283000 11.07100000
H 2.98180000 3.77381000 9.34137000
H 2.22584000 1.55636000 11.16270000
O 13.90740000 7.55260000 20.66530000
H 14.82900000 9.09162000 21.01470000
H 14.94960000 6.06555000 20.82180000
O 20.28210000 6.78602000 18.89590000
H 21.06310000 7.08657000 20.53320000
H 18.63320000 6.14474000 19.22280000
O 14.92340000 12.73360000 19.91430000
H 14.49100000 14.04990000 21.12740000
H 16.72790000 12.90360000 19.64760000
O 20.94100000 12.02500000 12.16480000
H 22.61780000 12.69800000 11.91500000
H 21.21860000 10.31990000 12.74190000
O 12.38040000 23.25780000 13.76450000
H 11.60690000 0.76061700 15.17420000
H 13.97220000 22.58230000 14.35310000
O 9.40872000 20.21210000 8.16391000
H 9.18040000 18.42810000 7.83761000
H 8.98205000 20.17580000 9.93949000
O 2.62616000 8.72511000 8.07461000
H 3.63207000 7.49028000 7.12949000
H 2.64565000 10.31650000 7.20080000
O 9.48287000 15.55140000 6.21214000
H 9.99762000 13.97990000 5.44939000
H 7.83299000 15.81090000 5.81788000
O 9.57222000 5.02828000 1.46358000
H 10.93150000 5.11016000 0.26644400
H 9.83578000 3.45800000 2.33630000
O 20.67190000 6.21478000 8.44869000
H 20.91150000 4.44922000 8.03686000
H 22.30260000 6.81949000 8.96521000
O 8.13352000 19.91010000 12.95480000
H 8.11208000 18.26440000 13.85430000
H 9.43244000 20.85140000 13.76880000
O 23.25820000 22.53800000 21.08020000
H 21.43490000 22.67650000 21.29860000
H -0.03240600 23.40310000 19.47050000
O 3.39349000 13.45200000 4.63265000
H 4.03377000 14.43370000 6.02854000
H 4.71874000 12.98870000 3.43051000
O 9.80703000 5.76190000 17.64190000
H 10.13280000 4.03452000 18.16240000
H 11.27590000 6.71388000 18.27760000
O 20.28970000 19.35170000 3.03293000
H 22.03710000 19.70110000 3.31830000
H 19.97430000 17.75370000 3.91005000
O 18.29140000 20.66260000 19.37410000
H 18.27870000 20.67020000 17.57490000
H 18.79800000 18.91470000 19.67010000
O 20.16000000 15.01920000 5.63225000
H 19.32210000 14.96110000 7.26564000
H 21.93680000 14.69810000 5.79137000
O 14.41200000 21.08150000 8.08464000
H 12.63850000 20.81980000 8.27583000
H 14.37400000 22.84750000 7.59149000
O 12.78780000 8.07173000 12.91280000
H 11.95250000 9.39720000 12.00640000
H 12.21020000 8.15726000 14.62710000
O 5.79565000 15.47860000 9.59197000
H 4.77367000 16.20790000 10.88530000
H 6.08826000 13.79170000 10.22730000
O 14.99130000 17.52780000 4.38673000
H 14.46700000 18.87860000 5.50509000
H 14.36180000 16.02440000 5.15164000
O 15.73610000 3.19306000 7.84335000
H 15.09950000 4.17335000 6.45496000
H 14.64590000 3.28472000 9.35079000
O 19.10060000 15.89580000 22.08860000
H 20.76830000 15.14640000 21.72760000
H 19.26580000 17.17870000 0.04386300
O 19.39630000 11.63200000 17.53230000
H 19.03640000 12.18280000 15.83990000
H 19.54680000 9.78409000 17.70520000
O 12.25040000 13.40340000 10.84150000
H 10.49510000 13.73060000 10.50890000
H 12.59820000 13.99080000 12.55780000
O 6.66760000 8.05148000 21.92340000
H 7.16299000 7.11731000 20.43360000
H 7.53925000 7.24610000 23.33060000
O 18.42100000 0.78304400 14.07800000
H 19.14420000 23.53670000 12.47400000
H 18.25500000 2.53398000 13.65560000
O 16.64990000 3.02613000 20.49280000
H 17.01650000 1.82168000 19.33340000
H 16.62790000 2.16503000 22.11500000
O 17.85940000 5.87903000 12.74910000
H 18.44980000 5.86985000 10.99340000
H 16.21920000 6.65505000 12.82120000
O 12.34070000 11.89930000 3.83939000
H 11.28800000 11.76890000 2.40144000
H 14.14520000 12.02240000 3.25465000
O 16.65870000 23.25830000 2.05570000
H 17.66090000 21.71610000 2.27887000
H 15.20360000 22.66310000 1.15239000
O 0.69440000 1.72622000 2.77992000
H -0.70473000 1.49484000 3.99961000
H 0.92474700 1.07819000 1.08635000
O 3.37208000 12.49580000 14.49670000
H 4.50838000 11.23080000 13.84370000
H 2.25912000 11.49720000 15.53150000
O 22.36590000 1.92675000 16.81250000
H 21.82610000 3.55134000 17.44180000
H 20.93410000 1.13727000 15.94460000
O 8.21380000 5.21186000 12.45530000
H 6.63102000 5.46853000 13.41250000
H 9.31206000 5.94429000 13.53860000
O 4.20218000 21.79350000 5.89491000
H 3.59310000 -0.14137300 4.92419000
H 5.93579000 22.33720000 6.04544000
O 19.38020000 21.22570000 9.36633000
H 19.83890000 19.47440000 9.40323000
H 17.57180000 21.14980000 9.64208000
O 13.86020000 20.85240000 21.65120000
H 15.35210000 20.84140000 20.51810000
H 13.16880000 19.16860000 21.43990000
O 9.11497000 3.20461000 7.38979000
H 10.12190000 4.73345000 7.47978000
H 8.84049000 2.81711000 9.14799000
O 17.30040000 12.05150000 2.44140000
H 18.29230000 12.31100000 0.95160500
H 18.21490000 13.33650000 3.34103000
O 23.48580000 6.68951000 13.52360000
H 21.87090000 6.11125000 12.92210000
H 1.27083000 5.39269000 12.86090000
O 4.63791000 16.63910000 21.42980000
H 3.62060000 15.19940000 20.98590000
H 3.52266000 17.41550000 22.68750000
O 9.82810000 22.97260000 3.03116000
H 9.68810000 -0.54169700 4.83687000
H 10.75230000 21.58870000 2.29006000
O 5.54661000 21.47450000 17.86160000
H 4.72656000 20.24050000 16.81280000
H 4.75875000 21.00120000 19.41830000
O 6.38648000 10.20830000 10.63510000
H 4.79372000 9.49801000 9.63314000
H 7.65707000 9.03939000 10.43100000
    
    &END COORD
  &END SUBSYS
  &DFT
    BASIS_SET_FILE_NAME  BASIS_SET
    POTENTIAL_FILE_NAME  GTH_POTENTIALS
    &QS
      EPS_DEFAULT 1.0E-10
    &END QS
    &MGRID
      NGRIDS 4
      CUTOFF 135
      REL_CUTOFF 115
    &END MGRID
    &XC
      &XC_FUNCTIONAL PADE
      &END XC_FUNCTIONAL
    &END XC
    &SCF
      SCF_GUESS ATOMIC
      EPS_SCF 1.0E-7
      MAX_SCF 300
      &DIAGONALIZATION  ON
        ALGORITHM STANDARD
      &END DIAGONALIZATION
      &MIXING  T
        METHOD BROYDEN_MIXING
        ALPHA 0.4
        NBROYDEN 8
      &END MIXING
    &END SCF
  &END DFT
  &PRINT
    &FORCES ON
    &END FORCES
  &END PRINT
&END FORCE_EVAL
