&GLOBAL
  PROJECT H2O_bulk
  RUN_TYPE ENERGY_FORCE
  PRINT_LEVEL LOW
&END GLOBAL
&FORCE_EVAL
  METHOD Quickstep
  &SUBSYS
    &KIND H
      ELEMENT   H
      BASIS_SET DZVP-GTH-PBE
      POTENTIAL GTH-PBE-q1
    &END KIND
    &KIND O
      ELEMENT   O
      BASIS_SET DZVP-GTH-PBE
      POTENTIAL GTH-PBE-q6
    &END KIND
    &CELL
      A     46.937    0.000000000    0.000000000
      B     0.000000000    44.121    0.000000000
      C     0.000000000    0.000000000    45.182
    &END CELL
    &COORD

O 8.52066000 23.39020000 5.53279000
H 8.66805000 23.34970000 3.62405000
H 8.03941000 21.65710000 5.76640000
O 2.39465000 0.54904500 18.44780000
H 2.39076000 0.32813200 20.26620000
H 0.77365300 1.28124000 18.12580000
O 12.25580000 19.20780000 17.22190000
H 10.71720000 18.92280000 16.26850000
H 11.71450000 20.54100000 18.35460000
O 19.47420000 15.77950000 20.96550000
H 18.49930000 16.78790000 19.78070000
H 20.36720000 14.62390000 19.88410000
O 18.46560000 9.82841000 16.75330000
H 16.54240000 9.85929000 16.66980000
H 18.11310000 11.48910000 16.00620000
O 2.97541000 15.15880000 3.57073000
H 3.13911000 16.09150000 2.00725000
H 1.24801000 15.54900000 3.96827000
O 4.00828000 13.76500000 19.10880000
H 2.53289000 14.06570000 18.10390000
H 5.26912000 13.35490000 17.88150000
O 3.54334000 11.75160000 10.28380000
H 2.88829000 10.10890000 10.68120000
H 4.83402000 11.60280000 9.01539000
O 12.82340000 2.88606000 7.33289000
H 14.44860000 2.33295000 6.64203000
H 11.76100000 1.88650000 6.25509000
O 14.92130000 12.18030000 9.53347000
H 14.71970000 13.89380000 8.88155000
H 13.98370000 11.11720000 8.34706000
O 20.97510000 2.63439000 22.09530000
H 19.52260000 3.65783000 22.65200000
H 21.34810000 3.26127000 20.43040000
O 20.82660000 6.76892000 10.19020000
H 19.17270000 6.26794000 10.81460000
H 20.68670000 7.86179000 8.74478000
O 17.55190000 22.14860000 0.41883500
H 18.49740000 23.44910000 -0.45025200
H 18.74770000 20.79390000 0.67675800
O 21.96350000 17.86590000 1.37235000
H 21.30430000 17.11430000 -0.18369400
H 21.16300000 16.92840000 2.70941000
O 8.31422000 23.57280000 0.41150400
H 8.89868000 0.96596700 23.22870000
H 8.22367000 22.08230000 23.28880000
O 5.67355000 19.82190000 10.86050000
H 5.76217000 18.47810000 9.58121000
H 4.28204000 21.06430000 10.59230000
O 2.00276000 8.46194000 2.00503000
H 2.25362000 8.92421000 0.22481700
H 0.52486900 9.36032000 2.56696000
O 16.67800000 2.67930000 16.23220000
H 18.69990000 3.41137000 16.78410000
H 15.02420000 3.30940000 16.77920000
O 12.40120000 11.53360000 1.32477000
H 12.46030000 10.58840000 2.89270000
H 10.65750000 11.96590000 1.08753000
O 22.53260000 10.26030000 19.77580000
H 33.93740000 -2.56783000 8.51411000
H 21.27120000 10.18040000 21.08560000
O 15.59370000 22.10410000 13.35450000
H 15.60820000 23.51820000 14.53200000
H 13.84690000 21.82090000 12.99010000
O 5.94026000 4.88354000 18.34600000
H 4.96204000 6.43967000 18.59800000
H 4.78216000 3.46492000 18.27560000
O 9.94534000 0.15952400 17.33440000
H 10.47270000 0.68221500 15.68840000
H 8.59580000 1.35379000 17.55480000
O 3.48276000 5.45979000 7.25984000
H 1.81509000 5.76920000 7.90956000
H 4.50271000 5.34245000 8.75084000
O 21.24330000 3.91915000 17.13080000
H 22.33070000 5.43971000 17.25130000
H 21.85340000 3.12288000 15.60810000
O 16.51910000 1.60213000 4.09087000
H 18.04760000 2.20516000 4.95106000
H 17.00350000 0.03537200 3.19337000
O 19.81150000 16.50290000 6.38695000
H 20.75930000 15.12010000 7.10818000
H 20.94190000 17.86610000 6.75917000
O 10.58690000 20.21710000 10.45780000
H 10.22750000 18.31920000 10.68430000
H 9.33257000 20.80600000 11.69910000
O 0.81069700 7.65417000 14.82880000
H 0.80670100 9.43650000 15.24250000
H -0.61215200 7.48715000 13.71780000
O 13.24170000 5.02680000 19.81240000
H 13.49870000 6.82705000 19.46380000
H 11.73360000 5.23292000 20.82320000
O 8.77822000 6.47625000 22.63510000
H 7.48120000 6.16036000 21.37560000
H 8.38424000 8.07965000 23.37130000
O 13.02320000 8.30766000 13.85830000
H 12.90980000 9.56912000 12.54990000
H 14.10620000 7.01994000 13.10020000
O 10.19550000 17.72060000 4.56239000
H 11.80680000 17.03450000 5.09859000
H 10.42890000 18.12470000 2.76266000
O 2.86226000 22.96970000 23.67880000
H 4.22669000 23.71870000 0.70655500
H 1.38201000 -0.63393700 0.76785900
O 6.77180000 9.63633000 5.96738000
H 5.79240000 8.10312000 5.74317000
H 6.06690000 10.69250000 4.66652000
O 6.46895000 15.91290000 7.47146000
H 7.74384000 16.30240000 6.20677000
H 5.04299000 15.62880000 6.35285000
O 19.79490000 9.43482000 0.67739800
H 18.52680000 10.68960000 1.01984000
H 19.02120000 7.98635000 -0.13323200
O 22.12360000 19.14400000 10.76800000
H 22.03380000 17.66370000 11.80480000
H 20.47540000 19.27280000 10.03150000
O 13.83800000 10.23660000 19.33960000
H 13.02140000 10.91190000 20.80170000
H 13.02430000 10.97280000 17.90320000
O 19.08660000 14.96430000 14.20280000
H 17.58390000 14.52140000 13.30500000
H 18.55650000 16.44140000 15.13040000
O 13.28100000 15.93280000 20.89970000
H 12.88780000 16.71750000 19.26850000
H 12.46170000 14.33550000 21.07210000
O 22.40630000 20.30050000 16.60990000
H 23.36880000 21.38520000 17.70090000
H 21.89000000 21.39700000 15.23820000
O 2.90364000 8.51151000 20.63890000
H 0.94520000 8.91185000 20.33180000
H 3.40273000 10.19400000 20.17020000
O 1.07373000 13.37790000 14.57750000
H 23.47150000 14.24510000 15.01630000
H 1.41557000 13.76130000 12.83950000
O 15.73230000 4.57799000 11.41040000
H 15.83120000 3.40994000 12.87120000
H 14.54010000 4.00252000 10.14170000
O 9.63309000 13.30270000 17.45350000
H 9.55666000 15.08230000 17.06750000
H 10.09170000 12.55620000 15.86360000
O 22.05380000 0.65562000 12.87670000
H -0.24752300 0.47285400 12.03610000
H 20.94670000 0.02842800 11.58180000
O 4.46345000 17.91030000 22.47960000
H 3.73938000 16.94340000 21.10840000
H 3.44072000 19.40920000 22.57670000
O 8.34561000 6.79677000 13.69230000
H 10.16380000 7.12318000 13.73970000
H 7.96480000 6.40602000 15.42910000
O 0.15607300 3.45956000 2.07446000
H 0.83914200 5.16965000 1.94352000
H 23.07010000 3.16904000 0.54139300
O 7.49049000 2.81797000 10.77220000
H 8.34767000 3.61337000 9.37631000
H 7.83659000 4.29875000 11.88290000
O 7.56319000 17.86540000 15.47460000
H 7.09209000 18.14520000 13.74310000
H 6.20661000 18.58240000 16.43650000
O 17.08160000 5.08163000 -0.19235300
H 16.92260000 4.14938000 1.37867000
H 15.64640000 4.61774000 22.69420000
O 19.91610000 11.17670000 6.86467000
H 19.22240000 11.26190000 5.18185000
H 18.70430000 11.46470000 8.20513000
O 21.04610000 2.32774000 5.97226000
H 21.05250000 3.62477000 7.23728000
H 22.15950000 2.92357000 4.59239000
O 9.43693000 18.05040000 23.44800000
H 10.43360000 17.09610000 22.21260000
H 7.68366000 17.64200000 23.02400000
O 17.06590000 14.34590000 1.61996000
H 15.25990000 14.14390000 1.57446000
H 17.55080000 14.68470000 -0.12287200
O 12.13690000 9.03282000 6.45675000
H 10.38810000 9.54414000 6.60850000
H 12.07540000 7.26403000 6.90323000
O 17.47270000 21.95750000 8.78231000
H 17.13770000 21.65660000 10.56190000
H 16.50060000 23.42460000 8.36993000
O 3.12707000 0.07537200 10.34500000
H 2.77451000 0.61455600 8.61919000
H 4.81983000 0.80009400 10.46620000
O 17.69540000 19.04860000 17.94110000
H 19.21650000 19.91200000 17.42380000
H 16.48560000 19.89890000 16.94050000
O 14.60140000 16.96050000 7.48167000
H 16.33120000 16.97460000 6.83380000
H 14.42110000 18.51630000 8.39105000
O 3.50198000 0.38620200 4.92385000
H 5.14968000 -0.28793500 5.27184000
H 3.53365000 2.20207000 5.09388000
O 9.95149000 14.61680000 11.64300000
H 8.18978000 14.27250000 11.40010000
H 10.62610000 13.96750000 9.95333000
    
    &END COORD
  &END SUBSYS
  &DFT
    BASIS_SET_FILE_NAME  BASIS_SET
    POTENTIAL_FILE_NAME  GTH_POTENTIALS
    &QS
      EPS_DEFAULT 1.0E-10
    &END QS
    &MGRID
      NGRIDS 4
      CUTOFF 135
      REL_CUTOFF 115
    &END MGRID
    &XC
      &XC_FUNCTIONAL PADE
      &END XC_FUNCTIONAL
    &END XC
    &SCF
      SCF_GUESS ATOMIC
      EPS_SCF 1.0E-7
      MAX_SCF 300
      &DIAGONALIZATION  ON
        ALGORITHM STANDARD
      &END DIAGONALIZATION
      &MIXING  T
        METHOD BROYDEN_MIXING
        ALPHA 0.4
        NBROYDEN 8
      &END MIXING
    &END SCF
  &END DFT
  &PRINT
    &FORCES ON
    &END FORCES
  &END PRINT
&END FORCE_EVAL
