&GLOBAL
  PROJECT H2O_bulk
  RUN_TYPE ENERGY_FORCE
  PRINT_LEVEL LOW
&END GLOBAL
&FORCE_EVAL
  METHOD Quickstep
  &SUBSYS
    &KIND H
      ELEMENT   H
      BASIS_SET DZVP-GTH-PBE
      POTENTIAL GTH-PBE-q1
    &END KIND
    &KIND O
      ELEMENT   O
      BASIS_SET DZVP-GTH-PBE
      POTENTIAL GTH-PBE-q6
    &END KIND
    &CELL
      A     46.937    0.000000000    0.000000000
      B     0.000000000    44.121    0.000000000
      C     0.000000000    0.000000000    45.182
    &END CELL
    &COORD

O 9.88640000 17.28660000 0.91487000
H 11.44670000 16.41360000 0.72637100
H 8.63886000 15.98880000 1.22542000
O 22.50590000 18.28610000 5.33377000
H 21.72180000 17.83690000 6.90162000
H 21.39280000 19.48560000 4.52246000
O 24.47140000 16.10820000 1.11563000
H 24.25410000 14.30570000 1.10372000
H 23.90870000 16.65210000 2.77133000
O 19.81310000 4.72804000 19.61660000
H 19.54350000 2.93748000 19.86370000
H 20.45530000 5.37717000 21.18790000
O 16.39140000 10.24470000 1.05601000
H 17.75090000 9.64887000 -0.02856700
H 15.76620000 11.68940000 0.15705400
O 9.18735000 6.84803000 22.89400000
H 7.47255000 7.25045000 23.28830000
H 9.10699000 6.70556000 20.98900000
O 8.59753000 6.84672000 17.78750000
H 10.70180000 3.73735000 15.97590000
H 6.81838000 6.50435000 17.55220000
O 6.11973000 1.32483000 18.64980000
H 5.88112000 -0.43713900 18.28840000
H 4.99513000 2.23479000 17.53950000
O 22.79740000 7.93459000 11.24450000
H 19.22910000 10.60920000 10.36640000
H 22.94880000 8.25094000 13.03240000
O 14.90640000 17.93660000 20.05140000
H 14.45510000 17.76280000 21.80030000
H 13.47510000 18.74020000 19.16560000
O 21.27560000 8.22229000 24.00960000
H 21.97870000 7.13079000 25.31640000
H 22.66060000 8.42132000 22.84320000
O 4.20279000 7.06733000 4.18056000
H 4.82062000 5.41252000 4.66695000
H 5.72547000 7.85240000 3.51829000
O 4.64510000 22.37840000 12.59350000
H 4.00147000 21.40950000 14.01200000
H 4.01660000 21.56160000 11.08150000
O 6.07584000 2.25230000 4.03412000
H 7.50675000 1.20371000 4.38369000
H 4.62895000 1.17151000 3.81024000
O 1.93031000 20.19820000 8.82637000
H 0.85707400 20.29890000 7.35687000
H 1.75262000 18.48680000 9.40591000
O 6.34963000 21.45650000 6.01226000
H 7.63472000 20.31020000 6.61479000
H 4.79737000 20.93020000 6.80891000
O 8.13503000 9.91780000 4.13730000
H 8.06789000 11.64930000 3.58711000
H 9.79841000 9.17992000 3.83452000
O 21.74710000 8.54507000 16.24170000
H 20.51120000 9.78735000 16.66980000
H 21.02000000 6.91090000 16.49710000
O 12.00640000 7.18552000 2.81314000
H 13.54170000 8.12473000 2.55952000
H 11.16600000 7.04377000 1.14029000
O 1.76081000 7.96456000 21.74730000
H 3.39468000 7.41817000 22.33620000
H 1.71443000 7.22777000 20.08930000
O 11.45020000 2.07239000 20.32280000
H 9.71674000 1.57169000 20.06480000
H 12.41530000 1.36725000 18.96180000
O 21.11680000 24.16520000 22.86630000
H 20.40860000 22.68420000 22.07910000
H 22.87950000 23.76950000 23.10920000
O 15.57330000 -0.23029300 5.38802000
H 14.92980000 1.18595000 6.32059000
H 14.27880000 -0.58628600 4.14314000
O 12.88940000 9.99693000 16.76570000
H 11.25250000 9.11053000 16.75020000
H 13.64670000 9.41503000 18.35090000
O 2.90499000 6.59323000 16.73910000
H 1.24053000 7.26462000 16.43820000
H 3.50412000 6.28898000 15.04660000
O 10.53520000 15.00100000 15.28670000
H 8.97410000 15.23220000 14.36620000
H 10.47520000 13.45560000 16.24100000
O 2.74799000 14.75310000 11.01220000
H 2.24557000 13.01210000 10.42900000
H 1.26273000 15.66260000 11.46530000
O 8.59061000 9.95791000 9.68474000
H 7.66927000 9.43096000 8.18970000
H 8.20992000 8.64970000 10.89870000
O 18.41890000 12.13530000 9.63199000
H 16.65300000 12.34030000 10.11540000
H 18.51970000 11.84810000 7.70097000
O 20.33470000 23.36210000 3.44968000
H 20.21630000 24.08600000 1.73902000
H 18.74140000 23.75500000 4.25856000
O 6.03845000 21.83220000 0.61955900
H 7.50369000 20.83790000 0.24819600
H 5.85019000 21.71870000 2.43916000
O 9.65918000 23.28860000 12.56040000
H 7.81195000 23.12700000 12.25740000
H 10.47980000 22.43730000 11.12460000
O 18.91520000 9.88612000 5.59240000
H 17.77570000 9.26832000 4.30677000
H 20.44570000 10.15810000 4.64610000
O 3.41052000 3.20177000 12.83840000
H 3.70427000 1.52740000 13.46780000
H 1.85189000 3.08166000 11.82730000
O 23.20810000 2.92396000 9.98390000
H 22.18440000 1.80327000 10.96550000
H 22.68170000 4.69460000 10.45150000
O 2.08143000 11.17750000 1.39820000
H 2.83796000 9.69109000 2.13829000
H 1.60500000 10.66200000 -0.27883600
O 23.56450000 6.23684000 4.08980000
H 25.37800000 6.19659000 3.80861000
H 23.30310000 4.63211000 4.92532000
O 8.06283000 15.28460000 10.46760000
H 6.22698000 15.35330000 10.51180000
H 8.33100000 13.46670000 10.26280000
O 16.64510000 13.32560000 20.31850000
H 16.02030000 15.00870000 19.83360000
H 16.74110000 12.39530000 18.76450000
O 2.10924000 10.20150000 9.26205000
H 2.22928000 9.82098000 7.49631000
H 0.63811700 9.12886000 10.04500000
O 15.56400000 16.90600000 1.14765000
H 15.33870000 17.66350000 2.78799000
H 15.49080000 15.11800000 1.35377000
O 11.54860000 2.86146000 14.56330000
H 10.60360000 1.24198000 13.67080000
H 12.29180000 4.12533000 13.36890000
O 3.66706000 20.48140000 17.34060000
H 2.98880000 21.35520000 18.80890000
H 4.31728000 18.88140000 17.89770000
O 15.06440000 7.19713000 20.39430000
H 16.39610000 6.70859000 21.52180000
H 13.81140000 5.88983000 20.49840000
O 11.26630000 19.72370000 17.20210000
H 10.98950000 17.97050000 16.65730000
H 11.59870000 20.64010000 15.66680000
O 24.11270000 17.34760000 20.55590000
H 24.14060000 19.08860000 20.05870000
H 24.52060000 17.32530000 22.35250000
O 13.06430000 23.61120000 24.68280000
H 11.89740000 24.86910000 24.04220000
H 12.16740000 22.03920000 24.53580000
O 18.30700000 1.54758000 12.84410000
H 17.34610000 2.96626000 12.21190000
H 18.47150000 0.36481900 11.48830000
O 16.05630000 18.90190000 6.61055000
H 16.92700000 18.27930000 8.08064000
H 16.71620000 20.59250000 6.37996000
O 14.82640000 5.72483000 11.44260000
H 14.73630000 7.52661000 11.83500000
H 14.41230000 5.61927000 9.66418000
O 20.16270000 17.96450000 10.36640000
H 20.07520000 16.26190000 9.77341000
H 20.34310000 17.73460000 12.18290000
O 8.16899000 4.93658000 10.90350000
H 6.69380000 4.28293000 11.79370000
H 9.55256000 3.89017000 11.36170000
O 13.77250000 10.75530000 11.69330000
H 12.16150000 10.44570000 10.85680000
H 13.38240000 10.85020000 13.51470000
O 22.43780000 16.82300000 15.21260000
H 23.31630000 18.17960000 16.02120000
H 22.20620000 15.53330000 16.48080000
O 21.24390000 12.99580000 18.64210000
H 19.77000000 13.11410000 19.74330000
H 22.40960000 14.23550000 19.29590000
O 4.51985000 3.60530000 23.23860000
H 5.16870000 2.71426000 21.76120000
H 5.84113000 3.37325000 24.47780000
O 5.89140000 14.41280000 2.35254000
H 5.51205000 16.10410000 2.87384000
H 4.26850000 13.63000000 1.89042000
O 19.57240000 20.03640000 18.94550000
H 18.10180000 19.34890000 19.78730000
H 20.15590000 18.67530000 17.90200000
O 2.04006000 23.27670000 21.49490000
H 3.55440000 22.52130000 22.21110000
H 2.26873000 25.01470000 22.04480000
O 24.86870000 1.35405000 4.67990000
H 23.18390000 0.82639500 4.17912000
H 25.09960000 0.53415200 6.27209000
O 11.10040000 20.01920000 8.65737000
H 10.41850000 18.53090000 9.46929000
H 12.80480000 19.56940000 8.18265000
O 17.23900000 0.26058900 17.83590000
H 17.91070000 -1.43978000 17.90470000
H 17.64220000 0.84273500 16.15420000
O 11.94780000 4.17527000 6.94821000
H 11.46230000 4.94928000 5.35522000
H 10.69470000 4.79251000 8.10798000
O 15.02480000 16.39850000 12.71300000
H 14.96190000 15.66720000 14.38160000
H 15.67440000 15.06690000 11.68400000
    
    &END COORD
  &END SUBSYS
  &DFT
    BASIS_SET_FILE_NAME  BASIS_SET
    POTENTIAL_FILE_NAME  GTH_POTENTIALS
    &QS
      EPS_DEFAULT 1.0E-10
    &END QS
    &MGRID
      NGRIDS 4
      CUTOFF 135
      REL_CUTOFF 115
    &END MGRID
    &XC
      &XC_FUNCTIONAL PADE
      &END XC_FUNCTIONAL
    &END XC
    &SCF
      SCF_GUESS ATOMIC
      EPS_SCF 1.0E-7
      MAX_SCF 300
      &DIAGONALIZATION  ON
        ALGORITHM STANDARD
      &END DIAGONALIZATION
      &MIXING  T
        METHOD BROYDEN_MIXING
        ALPHA 0.4
        NBROYDEN 8
      &END MIXING
    &END SCF
  &END DFT
  &PRINT
    &FORCES ON
    &END FORCES
  &END PRINT
&END FORCE_EVAL
