&GLOBAL
  PROJECT H2O_bulk
  RUN_TYPE ENERGY_FORCE
  PRINT_LEVEL LOW
&END GLOBAL
&FORCE_EVAL
  METHOD Quickstep
  &SUBSYS
    &KIND H
      ELEMENT   H
      BASIS_SET DZVP-GTH-PBE
      POTENTIAL GTH-PBE-q1
    &END KIND
    &KIND O
      ELEMENT   O
      BASIS_SET DZVP-GTH-PBE
      POTENTIAL GTH-PBE-q6
    &END KIND
    &CELL
      A     46.937    0.000000000    0.000000000
      B     0.000000000    44.121    0.000000000
      C     0.000000000    0.000000000    45.182
    &END CELL
    &COORD

O 11.11520000 23.12440000 7.12492000
H 11.51640000 23.11200000 5.34061000
H 10.12030000 0.74862100 7.15033000
O 21.40100000 1.66586000 12.59090000
H 22.20180000 2.20038000 13.94530000
H 19.66910000 2.08578000 12.90380000
O 13.91010000 21.49760000 17.02000000
H 12.87060000 19.86890000 17.29010000
H 13.74600000 22.17840000 15.61870000
O 21.62200000 12.32250000 21.79230000
H 21.03140000 12.69550000 23.25590000
H 20.38550000 11.33200000 21.02670000
O 14.37150000 13.47260000 21.41940000
H 12.98330000 12.51590000 21.05380000
H 13.79520000 15.29600000 20.98740000
O 5.70455000 15.50270000 4.82210000
H 5.97797000 14.83870000 3.13320000
H 3.83755000 15.16160000 5.10617000
O 22.83620000 17.19590000 16.13930000
H 23.65970000 16.41600000 17.20100000
H 22.69160000 18.79240000 16.69200000
O 2.85581000 7.57496000 8.95266000
H 1.79883000 8.42063000 10.10830000
H 2.28361000 5.84997000 9.06802000
O 8.44226000 13.47070000 9.15758000
H 7.72759000 12.94570000 6.14393000
H 7.09947000 14.55600000 9.51372000
O 11.33580000 8.33927000 19.09700000
H 10.72900000 8.07182000 20.85620000
H 9.77228000 8.00030000 17.87110000
O 0.38042700 4.74847000 16.34380000
H 1.25128000 3.02334000 16.17840000
H -0.72264300 4.41319000 17.90130000
O 17.20850000 8.29918000 8.80711000
H 18.71400000 7.95507000 9.94129000
H 18.14630000 8.94112000 7.41391000
O 13.24030000 19.10730000 0.07714200
H 14.86720000 18.25980000 -0.08683300
H 13.56280000 20.86440000 0.69114400
O 0.20250200 19.44740000 23.57960000
H 1.82646000 19.21250000 0.09682300
H 0.20993600 19.95690000 21.86520000
O 9.96998000 1.65712000 19.62900000
H 10.24050000 3.36343000 18.98710000
H 10.68700000 0.62035100 18.42560000
O 2.56054000 22.93800000 6.56433000
H 4.24182000 21.70570000 6.56276000
H 2.51195000 24.04130000 4.97745000
O 0.36010500 8.19759000 23.64260000
H 23.75310000 10.02010000 23.49060000
H 0.82476100 7.98581000 1.51029000
O 17.96280000 0.05824200 17.97980000
H 16.50670000 22.26710000 18.00810000
H 18.24380000 0.49496800 16.08660000
O 10.27810000 10.01040000 0.52859300
H 10.25550000 10.97540000 2.22493000
H 8.20837000 9.48133000 0.24705100
O 3.94201000 1.40640000 17.66260000
H 5.96500000 1.47553000 17.99220000
H 3.42761000 2.54049000 19.08610000
O 18.84390000 16.43080000 11.35850000
H 18.88120000 15.40900000 12.85020000
H 16.69590000 16.53720000 11.10170000
O 23.49020000 10.90120000 12.27550000
H 24.10930000 12.46740000 11.77220000
H 22.14840000 11.16540000 13.26070000
O 4.39709000 18.75430000 16.59350000
H 5.11111000 20.44470000 16.25680000
H 4.73917000 17.92400000 15.15730000
O 3.15351000 2.61132000 10.22930000
H 2.71180000 1.27279000 9.01195000
H 1.57612000 2.59491000 11.55110000
O 17.32730000 3.75990000 14.77590000
H 17.93390000 5.25316000 15.44700000
H 16.50120000 3.84677000 13.21310000
O 7.95247000 5.32138000 5.54027000
H 10.97620000 5.59176000 -0.74904300
H 6.27597000 4.90321000 5.47342000
O 23.23700000 8.55756000 5.06542000
H 21.95410000 9.51668000 5.57239000
H 0.64679700 9.16687000 5.58169000
O 11.40110000 20.21520000 12.08660000
H 10.85920000 21.48360000 10.86530000
H 10.47780000 20.59530000 13.55080000
O 17.41420000 9.79205000 14.80260000
H 15.91980000 10.66690000 14.15390000
H 16.97360000 9.52398000 16.58740000
O 5.10691000 5.47780000 21.20090000
H 5.64225000 7.25562000 20.50740000
H 4.62262000 5.62879000 22.96690000
O 15.79900000 5.35168000 20.97560000
H 14.14470000 6.30031000 20.38760000
H 16.09580000 4.03223000 19.74230000
O 17.85390000 9.65457000 20.31620000
H 17.01220000 8.24030000 20.24580000
H 16.66680000 11.06670000 20.17540000
O 14.40660000 14.43540000 14.96860000
H 14.73990000 14.34120000 16.75580000
H 12.96710000 14.67280000 14.86240000
O 7.52144000 1.43960000 1.41694000
H 8.39784000 2.34856000 0.19079000
H 7.16789000 23.77990000 0.45550600
O 5.00202000 10.85040000 1.46958000
H 3.73881000 10.48330000 2.46022000
H 4.29857000 10.69760000 -0.26154900
O 5.77854000 16.89630000 11.54760000
H 6.90149000 18.08970000 10.64580000
H 4.12878000 17.60920000 11.16390000
O 17.52810000 14.38780000 1.71565000
H 17.47360000 15.81490000 2.34672000
H 17.15770000 14.64910000 0.04202600
O 0.24470300 15.25770000 3.19445000
H 22.67070000 14.89300000 4.07787000
H -0.22254500 14.92960000 1.58777000
O 15.06210000 4.15044000 6.36868000
H 15.82360000 5.77410000 6.99778000
H 15.12030000 4.19081000 4.62921000
O 21.73850000 19.62340000 6.74653000
H 23.18580000 20.39660000 6.19229000
H 20.44380000 20.95480000 7.34639000
O 17.68390000 16.85140000 18.83950000
H 18.65370000 17.20120000 17.49770000
H 16.34290000 18.16040000 18.81610000
O 6.36197000 16.55660000 20.97050000
H 5.72477000 17.82710000 19.62310000
H 5.23485000 15.27620000 20.92370000
O 0.54552200 12.74710000 17.50180000
H 0.22418100 11.46200000 16.46100000
H 23.67230000 12.32850000 19.09820000
O 0.52350900 16.46540000 10.92040000
H 22.83930000 18.35850000 9.30145000
H 24.17260000 16.91440000 12.57420000
O 9.31483000 7.88668000 10.58510000
H 8.69091000 6.69577000 9.29049000
H 9.56827000 9.56677000 9.70687000
O 5.20785000 11.23160000 19.62460000
H 6.41820000 12.19310000 18.55880000
H 3.69300000 11.23010000 18.76120000
O 11.43180000 17.63850000 19.21770000
H 9.52839000 17.25130000 19.35010000
H 12.03400000 18.12070000 20.87770000
O 5.53240000 20.21500000 1.48046000
H 5.63175000 18.89680000 2.54742000
H 6.32367000 19.75490000 -0.23188900
O 7.66323000 7.64714000 15.16340000
H 8.10438000 7.43534000 13.32370000
H 6.16666000 6.90416000 15.31350000
O 22.87880000 3.87467000 21.59490000
H -0.36265200 5.20338000 22.11780000
H 21.63230000 3.75032000 22.90930000
O 6.96271000 1.78598000 13.60030000
H 5.92413000 2.08453000 11.73720000
H 8.56555000 2.18494000 13.49350000
O 12.87330000 3.18056000 10.99100000
H 12.44830000 4.79803000 10.87150000
H 13.31460000 2.58380000 9.18124000
O 15.16380000 23.26820000 3.41845000
H 16.56050000 21.94270000 3.06949000
H 15.82200000 0.45471100 4.83932000
O 19.13600000 12.38450000 6.41164000
H 17.93820000 13.38700000 5.28351000
H 20.27310000 13.55550000 7.57819000
O 20.48090000 3.98675000 2.35076000
H 19.51110000 5.56830000 2.27629000
H 22.25700000 4.58725000 2.67783000
O 10.88820000 14.78030000 3.48391000
H 11.33370000 14.97740000 1.74782000
H 12.33800000 15.23350000 4.77792000
O 12.31750000 5.39043000 1.48697000
H 12.94540000 7.25720000 0.92818100
H 12.87640000 4.08075000 0.21662400
O 13.48980000 16.21250000 8.90432000
H 13.47740000 17.80470000 9.93082000
H 11.97280000 15.18890000 9.48289000
O 18.86420000 21.97650000 9.81684000
H 20.51210000 22.15950000 10.33630000
H 18.20760000 20.49010000 10.54620000
O 2.55698000 2.07757000 2.19193000
H 4.06356000 3.05631000 1.91617000
H 1.94129000 0.92428200 0.92473700
O 23.34370000 22.32550000 19.05870000
H 0.50763500 23.44730000 19.36640000
H 21.71420000 22.84310000 19.81240000
O 19.13170000 19.74180000 2.08999000
H 20.46140000 19.30950000 1.30614000
H 19.64920000 19.44580000 3.90067000
O 7.00309000 19.94720000 7.39896000
H 8.25014000 20.70680000 6.78328000
H 6.94743000 18.40590000 6.87872000
O 9.09421000 12.73180000 15.33180000
H 8.93377000 11.13010000 15.14960000
H 9.23113000 13.30180000 13.70320000
    
    &END COORD
  &END SUBSYS
  &DFT
    BASIS_SET_FILE_NAME  BASIS_SET
    POTENTIAL_FILE_NAME  GTH_POTENTIALS
    &QS
      EPS_DEFAULT 1.0E-10
    &END QS
    &MGRID
      NGRIDS 4
      CUTOFF 135
      REL_CUTOFF 115
    &END MGRID
    &XC
      &XC_FUNCTIONAL PADE
      &END XC_FUNCTIONAL
    &END XC
    &SCF
      SCF_GUESS ATOMIC
      EPS_SCF 1.0E-7
      MAX_SCF 300
      &DIAGONALIZATION  ON
        ALGORITHM STANDARD
      &END DIAGONALIZATION
      &MIXING  T
        METHOD BROYDEN_MIXING
        ALPHA 0.4
        NBROYDEN 8
      &END MIXING
    &END SCF
  &END DFT
  &PRINT
    &FORCES ON
    &END FORCES
  &END PRINT
&END FORCE_EVAL
