&GLOBAL
  PROJECT H2O_bulk
  RUN_TYPE ENERGY_FORCE
  PRINT_LEVEL LOW
&END GLOBAL
&FORCE_EVAL
  METHOD Quickstep
  &SUBSYS
    &KIND H
      ELEMENT   H
      BASIS_SET DZVP-GTH-PBE
      POTENTIAL GTH-PBE-q1
    &END KIND
    &KIND O
      ELEMENT   O
      BASIS_SET DZVP-GTH-PBE
      POTENTIAL GTH-PBE-q6
    &END KIND
    &CELL
      A     46.937    0.000000000    0.000000000
      B     0.000000000    44.121    0.000000000
      C     0.000000000    0.000000000    45.182
    &END CELL
    &COORD

O 5.33413000 -0.38756400 8.44204000
H 5.03383000 0.95188200 7.01239000
H 6.84280000 0.20623900 9.16282000
O 10.40740000 6.35044000 2.50632000
H 11.92710000 5.64143000 1.96963000
H 9.60958000 6.87798000 1.04362000
O 14.10270000 2.75219000 19.70160000
H 13.70130000 3.55035000 18.05080000
H 14.86500000 4.23660000 20.77930000
O 21.77180000 4.42299000 13.48970000
H 20.63600000 4.53281000 14.80940000
H 22.85890000 5.98587000 13.65830000
O 21.76850000 14.90760000 7.41253000
H 21.29140000 15.22920000 5.52607000
H 21.45770000 16.73530000 8.08996000
O 15.36940000 18.47990000 12.27220000
H 15.21150000 20.32800000 12.33150000
H 17.01260000 18.54500000 11.75010000
O 16.57860000 7.57687000 6.99291000
H 17.29050000 6.97871000 8.30963000
H 14.67000000 7.00847000 7.33925000
O 5.70619000 22.11490000 19.27090000
H 4.58688000 23.50170000 19.17310000
H 7.06351000 22.83980000 19.95900000
O 5.78643000 9.79399000 12.79930000
H 5.48983000 12.99320000 12.74090000
H 4.40938000 9.41279000 11.72660000
O 1.56854000 0.61573000 1.74749000
H 2.89724000 1.18822000 0.91427500
H 2.11091000 -0.72608500 2.63000000
O 2.82932000 19.14630000 0.68508300
H 1.79929000 19.12650000 -0.81621600
H 3.93630000 17.76460000 0.61202000
O 3.47163000 7.35899000 6.08107000
H 4.38967000 5.63593000 6.32542000
H 4.08071000 8.01782000 4.51442000
O 11.33080000 18.40680000 8.56198000
H 11.45800000 17.33630000 7.21085000
H 13.28400000 18.62820000 8.81904000
O 22.42940000 2.03996000 4.45570000
H 23.12950000 0.80775200 3.11982000
H 23.07690000 3.66530000 4.25835000
O 18.51410000 5.45710000 20.91770000
H 19.18410000 6.92250000 21.80900000
H 17.73230000 6.54382000 19.30860000
O 17.16160000 16.55720000 16.86520000
H 15.81350000 15.36030000 17.15900000
H 16.26440000 17.53520000 15.31970000
O 11.11060000 8.13616000 7.10256000
H 10.46290000 9.98291000 6.98607000
H 11.12170000 7.63437000 5.33257000
O 8.73609000 12.93050000 7.79772000
H 11.58770000 14.15890000 8.09889000
H 7.79902000 13.96820000 8.28647000
O 18.76600000 2.75842000 8.01286000
H 19.44590000 1.94468000 9.80073000
H 19.45330000 1.82053000 6.69371000
O 16.03460000 10.97970000 2.46300000
H 18.02440000 11.26060000 3.51040000
H 15.41760000 9.88095000 3.93817000
O 24.20380000 21.85860000 22.57200000
H 23.91490000 22.57300000 24.14280000
H 22.24750000 21.97280000 21.66710000
O 15.24430000 22.84260000 18.77610000
H 16.13760000 22.85700000 17.15100000
H 15.55560000 24.64120000 19.38100000
O 5.61094000 2.57310000 23.67760000
H 4.85789000 3.66340000 22.38560000
H 6.99477000 1.94988000 22.92330000
O 0.30956500 18.30210000 15.12800000
H 2.07682000 18.76690000 14.99400000
H 0.36141000 17.35660000 16.67550000
O 21.45620000 13.48330000 1.16724000
H 20.95130000 13.86260000 -0.53133900
H 23.28410000 14.27710000 1.17624000
O 20.10620000 11.89700000 16.48060000
H 24.82220000 14.31090000 16.57540000
H 19.03070000 13.05160000 17.33320000
O 6.11366000 21.98560000 3.39109000
H 5.32708000 21.06360000 4.70402000
H 5.16764000 22.49510000 2.00668000
O 10.25430000 23.33550000 9.03525000
H 9.97692000 21.52840000 9.03575000
H 10.85690000 23.46160000 7.60556000
O 5.04432000 14.82990000 19.15130000
H 5.06023000 14.33350000 20.89010000
H 4.47513000 16.54340000 19.33130000
O 13.07660000 5.22599000 15.01510000
H 12.42130000 5.79794000 13.43310000
H 14.27230000 3.87020000 14.59040000
O 12.88350000 12.66900000 23.15220000
H 11.11170000 12.28690000 23.18320000
H 13.61000000 11.72470000 24.45350000
O 8.74438000 1.87829000 19.63670000
H 10.50690000 1.79592000 19.35270000
H 7.98275000 3.38223000 18.70590000
O 5.90262000 3.35405000 4.43595000
H 5.82637000 2.53707000 2.86932000
H 7.33778000 4.67797000 3.99270000
O 22.72310000 7.50134000 4.58945000
H 22.40310000 8.64916000 6.22312000
H 24.42990000 7.44639000 4.80633000
O 14.46750000 1.42777000 10.56320000
H 13.32570000 0.20050300 9.91152000
H 15.76820000 1.71138000 9.13010000
O 20.38810000 8.53520000 -0.39802700
H 21.59850000 7.30980000 0.65120100
H 20.70320000 10.43600000 0.27641500
O 9.45594000 8.07537000 21.90400000
H 10.22570000 7.53326000 20.37340000
H 7.96968000 8.20088000 21.61880000
O 5.82765000 11.74190000 3.35978000
H 4.71649000 12.73230000 4.39715000
H 6.72193000 10.86030000 4.63032000
O 21.71160000 10.08980000 9.01944000
H 21.31010000 11.86210000 8.35916000
H 20.56000000 9.13761000 8.25566000
O 21.99640000 24.27270000 12.37870000
H 23.50150000 23.42050000 12.55720000
H 22.62490000 25.79570000 11.84880000
O 14.27240000 13.86720000 7.38298000
H 14.97250000 12.37950000 7.98331000
H 13.17170000 12.63870000 6.51244000
O 2.95723000 5.51953000 20.00670000
H 2.78076000 7.40751000 19.43830000
H 1.66687000 4.64834000 18.80710000
O 10.86930000 23.19550000 3.09584000
H 9.07901000 22.80090000 3.09463000
H 11.47910000 22.03250000 1.75311000
O 10.05970000 17.17290000 14.91400000
H 10.92960000 16.99690000 16.48960000
H 11.59320000 17.74560000 13.93630000
O 6.22318000 14.89760000 24.43930000
H 7.96920000 15.16130000 24.76120000
H 5.74938000 13.39190000 25.33390000
O 23.14360000 16.28800000 21.30350000
H 22.88410000 17.69590000 20.06290000
H 25.02380000 16.70510000 21.39300000
O 2.28124000 15.50850000 4.84662000
H 1.33692000 16.77450000 4.09842000
H 1.02586000 14.32620000 5.92270000
O 2.72382000 23.16560000 12.50700000
H 3.23973000 21.48150000 12.32880000
H 3.50053000 23.81180000 10.77670000
O 9.41002000 6.58388000 11.91530000
H 8.06863000 8.07850000 12.04700000
H 10.59270000 7.38993000 10.67070000
O 12.36400000 14.42120000 18.35940000
H 11.84050000 12.62820000 17.58660000
H 12.70680000 14.15260000 20.11840000
O 1.17437000 1.95687000 17.22690000
H 1.13047000 2.30447000 14.99670000
H -0.64422900 1.64757000 17.60610000
O 17.09940000 16.80500000 24.09080000
H 17.59160000 15.15320000 24.74490000
H 17.81010000 17.14460000 22.38640000
O 5.84551000 14.88460000 11.78470000
H 7.68442000 14.95560000 12.59740000
H 5.15830000 16.50530000 12.20260000
O 19.00830000 19.95670000 20.23140000
H 17.80610000 19.56720000 19.00100000
H 18.87060000 21.70270000 20.59360000
O 13.15980000 20.65940000 23.40360000
H 14.39400000 19.34110000 23.49370000
H 14.03600000 22.20810000 22.55420000
O 17.45670000 23.46810000 14.10110000
H 17.01230000 23.53170000 12.09130000
H 19.37410000 23.93780000 13.99180000
O 1.01134000 12.98510000 16.48760000
H 2.30908000 13.64550000 15.21350000
H 2.01403000 12.96730000 17.95000000
O 10.86570000 16.56710000 1.08260000
H 12.46540000 16.16890000 0.37837100
H 11.00690000 18.30690000 1.20536000
O 5.84772000 19.97310000 14.01510000
H 7.56808000 18.86690000 14.49010000
H 5.93745000 21.27900000 15.52020000
O 10.95580000 9.48374000 16.78570000
H 12.32160000 9.17585000 15.69830000
H 9.72269000 9.24649000 15.73660000
O 14.64850000 3.19921000 2.79804000
H 13.24600000 1.75152000 2.94130000
H 16.01330000 2.74052000 3.82361000
O 18.09410000 7.72316000 15.84660000
H 18.97750000 9.43857000 16.50980000
H 16.44080000 8.24256000 15.52400000
O 21.13510000 19.02340000 10.75940000
H 21.53630000 18.07280000 12.18820000
H 21.66130000 20.84590000 11.09560000
O 1.24563000 7.57767000 10.99720000
H 2.41036000 6.28699000 10.83040000
H 1.09177000 8.08142000 9.35920000
    
    &END COORD
  &END SUBSYS
  &DFT
    BASIS_SET_FILE_NAME  BASIS_SET
    POTENTIAL_FILE_NAME  GTH_POTENTIALS
    &QS
      EPS_DEFAULT 1.0E-10
    &END QS
    &MGRID
      NGRIDS 4
      CUTOFF 135
      REL_CUTOFF 115
    &END MGRID
    &XC
      &XC_FUNCTIONAL PADE
      &END XC_FUNCTIONAL
    &END XC
    &SCF
      SCF_GUESS ATOMIC
      EPS_SCF 1.0E-7
      MAX_SCF 300
      &DIAGONALIZATION  ON
        ALGORITHM STANDARD
      &END DIAGONALIZATION
      &MIXING  T
        METHOD BROYDEN_MIXING
        ALPHA 0.4
        NBROYDEN 8
      &END MIXING
    &END SCF
  &END DFT
  &PRINT
    &FORCES ON
    &END FORCES
  &END PRINT
&END FORCE_EVAL
