&GLOBAL
  PROJECT H2O_bulk
  RUN_TYPE ENERGY_FORCE
  PRINT_LEVEL LOW
&END GLOBAL
&FORCE_EVAL
  METHOD Quickstep
  &SUBSYS
    &KIND H
      ELEMENT   H
      BASIS_SET DZVP-GTH-PBE
      POTENTIAL GTH-PBE-q1
    &END KIND
    &KIND O
      ELEMENT   O
      BASIS_SET DZVP-GTH-PBE
      POTENTIAL GTH-PBE-q6
    &END KIND
    &CELL
      A     46.937    0.000000000    0.000000000
      B     0.000000000    44.121    0.000000000
      C     0.000000000    0.000000000    45.182
    &END CELL
    &COORD

O 11.54090000 17.97730000 28.25950000
H 10.25930000 19.35270000 28.60590000
H 10.26930000 16.99210000 27.21380000
O 6.48116000 3.62257000 6.79597000
H 7.61430000 4.07520000 8.48521000
H 7.13442000 4.66137000 5.23224000
O -3.41494000 23.52370000 -0.91096900
H -5.19263000 23.92750000 -0.57633500
H -2.73570000 23.44400000 0.72053600
O 9.06506000 6.03781000 26.31270000
H 10.83450000 6.07730000 26.25890000
H 8.34107000 7.26139000 25.04110000
O 17.73640000 18.91710000 10.00470000
H 16.62510000 20.34010000 9.70397000
H 17.33090000 17.37210000 9.68287000
O 15.26110000 1.82203000 21.70940000
H 13.93450000 3.23066000 21.90840000
H 15.93010000 1.94234000 19.94800000
O -4.35805000 1.93688000 4.23197000
H -2.64382000 2.89561000 4.43262000
H -4.17053000 0.38425900 28.50800000
O 19.70630000 13.44630000 22.60340000
H 19.56700000 15.23770000 22.26760000
H 21.37070000 13.35500000 21.28550000
O 2.30783000 -8.28963000 13.31270000
H 1.25697000 -9.19919000 12.08150000
H 3.39283000 -9.87857000 14.16170000
O 15.69690000 14.80690000 6.06404000
H 14.51920000 16.25700000 5.53837000
H 17.71470000 15.37220000 5.41490000
O -0.07143700 29.97350000 27.72590000
H 1.23311000 28.27430000 28.02710000
H 0.86904000 31.67500000 28.35460000
O 2.56408000 24.47250000 7.45225000
H 2.21652000 23.46870000 6.14564000
H 4.19555000 25.39320000 7.10148000
O -8.99089000 7.33297000 0.52606600
H 14.49870000 8.97373000 -0.41252900
H 16.37660000 6.95244000 0.80073600
O 23.87590000 13.59170000 -4.79558000
H 24.16220000 14.41270000 -6.45187000
H 25.67060000 14.05470000 19.76130000
O 21.92290000 23.04750000 17.89710000
H 20.83820000 22.77900000 19.38330000
H 21.30080000 22.08670000 16.66660000
O 10.30360000 12.61760000 -2.68853000
H 12.23230000 12.30080000 -2.35496000
H 10.38010000 14.09930000 -3.48692000
O 21.01940000 -2.94584000 13.83870000
H 19.69720000 -3.82908000 12.73720000
H 22.60930000 19.71670000 13.40250000
O 18.00070000 3.61295000 17.34390000
H 19.88690000 2.79544000 17.47380000
H 17.21610000 2.60673000 15.73240000
O 5.90351000 20.01640000 20.40450000
H 30.14550000 20.98050000 21.81600000
H 4.92559000 21.40740000 19.14840000
O 10.90290000 0.44078400 17.86030000
H 12.65260000 0.51699000 16.92520000
H 9.71429000 -0.66134800 17.14190000
O 11.56300000 -8.71699000 15.23820000
H 13.18810000 -9.44503000 15.49910000
H 10.38280000 -10.18710000 14.72310000
O 11.21280000 18.05410000 -3.31787000
H 10.12450000 19.58320000 -3.58381000
H 11.76270000 18.51690000 -1.62528000
O 8.51192000 0.58096800 -0.69715600
H 9.36794000 1.16225000 -2.04627000
H 7.25268000 1.81648000 -0.13025700
O 15.37160000 12.03250000 20.88490000
H 15.66540000 10.61200000 19.40520000
H 17.30230000 12.47390000 21.20410000
O 22.81810000 2.02528000 11.62100000
H 21.87300000 0.43623000 12.53080000
H 23.72060000 1.50638000 10.03550000
O 4.76001000 31.63930000 0.34192300
H 4.20362000 9.68213000 1.46836000
H 5.59624000 32.13950000 -1.39492000
O 4.15311000 10.81280000 14.08000000
H 5.81947000 10.30080000 12.85240000
H 3.20290000 9.23695000 14.44450000
O -3.66053000 6.90308000 0.46449100
H -2.27308000 6.49280000 1.54986000
H -3.00686000 7.46389000 -1.20531000
O 17.91250000 12.88300000 14.42370000
H 17.88720000 11.35180000 15.11670000
H 16.54450000 12.51150000 12.81310000
O 4.74633000 16.33800000 3.24283000
H 5.60387000 14.81540000 2.37516000
H 4.20483000 17.56320000 2.15743000
O 3.29081000 -3.48536000 11.20190000
H 3.76318000 -5.68940000 11.60210000
H 3.82148000 -2.52772000 9.50648000
O 6.51655000 23.38590000 13.73440000
H 5.18715000 24.00370000 14.74760000
H 5.34638000 21.89530000 13.17630000
O 16.52380000 17.84560000 -6.38954000
H 14.71390000 17.94850000 -6.00990000
H 16.61260000 16.06510000 -7.26086000
O 24.34500000 -4.91486000 0.13511400
H 22.54370000 -5.61459000 24.05360000
H 23.85990000 -3.74585000 -1.29927000
O 10.53840000 6.03237000 17.10640000
H 10.01040000 4.20772000 17.35480000
H 9.11782000 7.05057000 18.37520000
O 14.13290000 22.41670000 9.24161000
H 12.17800000 21.96350000 8.81629000
H 14.43800000 24.06150000 8.35057000
O 12.59720000 10.38440000 4.63302000
H 13.72380000 11.63400000 5.23152000
H 13.40520000 9.32843000 3.25825000
O 9.06360000 13.41380000 2.44306000
H 9.50684000 13.72530000 0.67044700
H 10.43370000 12.64410000 3.27870000
O 21.04550000 20.71010000 6.18360000
H 20.83370000 19.94420000 4.69539000
H 20.20190000 20.04850000 7.65062000
O 11.40280000 8.41656000 9.25972000
H 12.25370000 6.57621000 8.52756000
H 11.70310000 9.16627000 7.87661000
O 15.74230000 11.09940000 10.28520000
H 14.06360000 10.32650000 10.66930000
H 15.59810000 12.16170000 8.50243000
O 23.34320000 32.00630000 19.57760000
H 24.56760000 31.84280000 20.87830000
H 23.44510000 33.47480000 18.71470000
O 3.21348000 10.67440000 5.46331000
H 4.49534000 11.04000000 6.69717000
H 1.69145000 11.62860000 5.88826000
O 14.95400000 27.56540000 7.20300000
H 16.13480000 28.23760000 8.53627000
H 16.08490000 26.59390000 5.96623000
O 4.51112000 15.40560000 20.44500000
H 4.83063000 17.29650000 20.77170000
H 6.17869000 14.68000000 19.89920000
O 3.16747000 24.02620000 17.69680000
H 2.92275000 25.52130000 19.31910000
H 1.06868000 23.61420000 17.30660000
O 0.90062900 16.27720000 6.78164000
H 2.47233000 15.94280000 5.51950000
H 0.22930300 18.11830000 6.97923000
O -7.74741000 8.58851000 16.86580000
H 14.01460000 7.58822000 16.40720000
H -6.99866000 6.97878000 17.17920000
O 29.95290000 8.95855000 10.07880000
H 31.98120000 8.25026000 10.06750000
H 28.83550000 7.53311000 9.70590000
O 10.38070000 14.41860000 9.13717000
H 9.16070000 13.34620000 8.10447000
H 10.29110000 16.00930000 8.25193000
O 20.63260000 11.36090000 6.24536000
H 20.47500000 9.76477000 5.43805000
H -3.54840000 11.26710000 8.51021000
O 20.07990000 15.73230000 3.80789000
H 21.37530000 15.15430000 4.81784000
H 19.92210000 14.56430000 2.51714000
O 18.43370000 5.42155000 10.57490000
H 19.45440000 4.17730000 10.85640000
H 19.19810000 7.04192000 11.11710000
O 8.92769000 22.52690000 28.10160000
H 8.67220000 24.05410000 29.23580000
H 9.56665000 23.31960000 26.70000000
O -21.98750000 6.04493000 14.67920000
H -22.65400000 4.56796000 13.56020000
H -22.68770000 5.52225000 16.43380000
O 15.65630000 -0.84044300 15.12170000
H 15.38710000 -0.93854600 13.36600000
H 16.48840000 -2.27553000 15.98700000
O 19.09910000 -5.18792000 21.73260000
H 17.81110000 -4.29856000 22.77840000
H 18.29290000 -4.55273000 19.99430000
O 30.12510000 9.61773000 19.37030000
H 29.03870000 10.19800000 17.94650000
H 31.78710000 10.62390000 19.73650000
O 26.65760000 22.63610000 26.16020000
H 25.59790000 -2.35394000 25.39590000
H 28.38620000 22.07450000 26.38460000
O 26.32960000 26.71450000 22.41330000
H 3.80383000 28.48970000 22.79030000
H 26.23320000 25.80310000 23.94470000
O -8.50496000 20.14450000 1.19199000
H -8.91309000 19.66940000 2.80944000
H -9.20907000 21.67030000 0.42483900
O 9.24683000 3.91285000 11.11900000
H 7.90276000 2.78121000 12.18550000
H 9.31904000 5.71045000 12.19000000
O 21.05760000 9.86107000 11.49670000
H 20.09420000 11.23260000 12.55490000
H 22.69600000 9.35632000 12.23640000
O 10.41600000 -3.71571000 11.50650000
H 8.66547000 20.54620000 12.22940000
H 10.54170000 -5.48900000 12.51780000
    
    &END COORD
  &END SUBSYS
  &DFT
    BASIS_SET_FILE_NAME  BASIS_SET
    POTENTIAL_FILE_NAME  GTH_POTENTIALS
    &QS
      EPS_DEFAULT 1.0E-10
    &END QS
    &MGRID
      NGRIDS 4
      CUTOFF 135
      REL_CUTOFF 115
    &END MGRID
    &XC
      &XC_FUNCTIONAL PADE
      &END XC_FUNCTIONAL
    &END XC
    &SCF
      SCF_GUESS ATOMIC
      EPS_SCF 1.0E-7
      MAX_SCF 300
      &DIAGONALIZATION  ON
        ALGORITHM STANDARD
      &END DIAGONALIZATION
      &MIXING  T
        METHOD BROYDEN_MIXING
        ALPHA 0.4
        NBROYDEN 8
      &END MIXING
    &END SCF
  &END DFT
  &PRINT
    &FORCES ON
    &END FORCES
  &END PRINT
&END FORCE_EVAL
