&GLOBAL
  PROJECT H2O_bulk
  RUN_TYPE ENERGY_FORCE
  PRINT_LEVEL LOW
&END GLOBAL
&FORCE_EVAL
  METHOD Quickstep
  &SUBSYS
    &KIND H
      ELEMENT   H
      BASIS_SET DZVP-GTH-PBE
      POTENTIAL GTH-PBE-q1
    &END KIND
    &KIND O
      ELEMENT   O
      BASIS_SET DZVP-GTH-PBE
      POTENTIAL GTH-PBE-q6
    &END KIND
    &CELL
      A     46.937    0.000000000    0.000000000
      B     0.000000000    44.121    0.000000000
      C     0.000000000    0.000000000    45.182
    &END CELL
    &COORD

O 7.35740000 12.53840000 0.83051300
H 6.38768000 13.82950000 23.07220000
H 6.80788000 10.85950000 23.59290000
O 22.48950000 17.61850000 11.98570000
H 22.72320000 17.21480000 13.57320000
H 0.24759200 18.88540000 11.71360000
O 7.18341000 15.81350000 16.31330000
H 5.63735000 14.65370000 15.63660000
H 6.45663000 16.52010000 18.04090000
O 20.84130000 1.51931000 6.16053000
H 20.57330000 -0.35850400 6.79007000
H 19.21170000 2.16527000 5.53238000
O 12.10120000 14.69340000 15.80650000
H 13.06460000 13.65800000 16.89820000
H 10.72660000 15.49490000 16.86490000
O 2.05070000 8.65626000 18.76320000
H 1.91833000 7.24667000 17.54970000
H 3.02796000 7.95101000 20.17720000
O 10.51570000 0.06642300 19.25780000
H 11.28550000 23.22010000 20.88650000
H 9.02543000 21.97990000 19.65110000
O 23.49180000 13.10060000 21.06860000
H 23.11320000 12.34410000 19.41140000
H -0.10720900 11.65230000 22.04120000
O 13.09050000 16.42180000 23.27640000
H 12.53960000 15.19870000 1.12672000
H 14.52890000 16.94470000 0.82377100
O 16.79580000 15.47660000 9.93365000
H 17.47260000 14.26660000 11.32580000
H 14.91370000 14.96100000 9.50794000
O 15.78790000 19.02570000 14.51700000
H 14.63710000 17.70060000 15.21630000
H 16.05020000 18.67780000 12.78250000
O 3.14308000 21.26420000 11.18030000
H 4.85651000 20.69760000 11.90780000
H 3.37153000 20.70030000 9.27922000
O 2.60834000 18.17430000 2.50330000
H 2.96537000 19.83380000 3.50150000
H 4.09757000 17.13730000 2.91592000
O 22.86430000 7.07057000 0.73806500
H 23.68710000 5.44464000 0.01965100
H 21.46180000 6.71940000 1.56155000
O 4.17644000 3.58883000 16.03950000
H 4.97871000 2.11728000 16.68940000
H 2.27739000 3.03388000 15.72420000
O 10.97790000 8.11142000 7.26641000
H 12.11810000 8.37539000 5.90596000
H 9.70987000 9.57728000 7.21212000
O 4.69080000 5.41613000 6.27955000
H 6.48186000 5.36270000 7.03327000
H 4.75462000 4.80919000 4.65571000
O 18.20960000 6.95878000 3.65623000
H 17.15670000 8.20820000 3.36442000
H 19.52580000 7.48937000 5.02923000
O 3.15960000 3.26596000 10.98870000
H 2.95506000 3.76247000 9.60408000
H 1.97364000 1.73725000 11.17520000
O 13.96920000 7.62840000 20.50260000
H 14.92840000 8.99443000 21.21790000
H 14.86510000 6.13116000 20.89880000
O 20.35110000 7.01519000 19.01100000
H 20.98310000 7.02216000 20.54560000
H 18.61540000 6.27609000 19.08710000
O 15.07500000 12.86300000 19.74420000
H 14.46660000 13.88670000 21.06560000
H 16.97260000 12.87650000 19.87390000
O 20.91340000 12.02740000 12.02090000
H 22.70200000 12.64130000 11.97690000
H 21.19120000 10.37810000 12.82840000
O 12.47750000 23.16220000 13.79450000
H 11.62310000 0.68241800 15.10130000
H 14.03280000 22.72990000 14.44350000
O 9.25801000 19.97220000 8.12817000
H 8.94548000 18.23430000 7.72277000
H 9.20840000 20.13760000 9.91691000
O 2.63697000 9.24246000 8.18357000
H 2.65460000 6.48397000 6.56704000
H 2.63051000 10.59150000 7.16425000
O 9.29420000 15.63880000 6.37797000
H 9.89117000 13.99010000 5.56528000
H 7.96829000 16.07600000 5.94318000
O 9.50312000 4.85626000 1.30294000
H 10.88140000 5.18141000 0.24722900
H 9.84971000 3.57965000 2.51412000
O 20.70140000 6.19099000 8.28209000
H 20.77580000 4.27850000 7.95525000
H 22.10990000 6.67018000 9.09921000
O 7.99343000 20.02860000 12.97640000
H 8.14546000 18.04810000 13.70940000
H 9.48996000 20.88750000 13.76480000
O 23.22440000 22.54430000 20.95490000
H 21.27170000 22.81000000 21.34190000
H 0.05675900 23.49260000 19.24690000
O 3.32935000 13.45950000 4.68867000
H 4.04077000 14.47710000 5.75333000
H 4.74726000 13.14650000 3.40764000
O 9.65770000 5.72102000 17.53500000
H 10.21480000 3.98579000 18.24460000
H 11.31040000 6.80254000 17.94570000
O 20.46470000 19.12070000 2.88473000
H 21.93540000 19.71450000 3.58947000
H 20.05730000 17.64590000 3.99693000
O 18.16290000 20.54930000 19.44830000
H 18.25190000 20.93030000 17.66270000
H 18.89220000 18.76880000 19.85010000
O 20.15880000 14.98380000 5.49144000
H 19.30580000 14.93060000 7.09618000
H 21.92960000 14.87170000 5.72615000
O 14.42850000 20.89560000 7.87565000
H 12.63360000 20.45410000 8.20619000
H 14.55420000 23.14120000 7.66591000
O 12.59010000 8.02038000 12.96140000
H 11.78210000 9.36163000 12.07240000
H 12.13400000 8.06607000 14.45710000
O 5.81798000 15.42990000 9.57016000
H 4.82540000 16.41690000 10.84530000
H 6.33719000 13.77620000 10.24030000
O 14.87710000 17.60710000 4.53620000
H 14.15800000 18.85210000 5.59439000
H 14.48200000 16.13330000 5.05117000
O 16.03610000 3.35476000 7.89942000
H 14.97490000 4.10425000 6.57004000
H 14.51680000 3.25278000 9.17662000
O 19.00550000 15.55200000 22.51560000
H 20.59360000 15.32160000 21.73040000
H 19.16920000 17.13510000 -0.23974000
O 19.07380000 11.60300000 17.66310000
H 19.04060000 12.05380000 16.01310000
H 19.41420000 9.75742000 17.54280000
O 12.40230000 13.41590000 10.74690000
H 10.53200000 13.69930000 10.71860000
H 12.67770000 14.08160000 12.39980000
O 6.77582000 8.22925000 21.89780000
H 7.08748000 6.96769000 20.62130000
H 7.57597000 7.46174000 23.26960000
O 18.46610000 0.81290700 13.98080000
H 19.17880000 23.44700000 12.12840000
H 18.42430000 2.65301000 14.04260000
O 16.80860000 2.97002000 20.35480000
H 17.01460000 1.91436000 19.37210000
H 16.40440000 2.23640000 22.10730000
O 17.82200000 5.67757000 12.78080000
H 18.47930000 5.89692000 11.07310000
H 16.38330000 6.64248000 12.70510000
O 12.23240000 11.91310000 4.01640000
H 11.33560000 11.88770000 2.47169000
H 14.16250000 12.10520000 3.32955000
O 16.66190000 23.30090000 2.07098000
H 17.56450000 21.58050000 2.22496000
H 15.21690000 22.78370000 1.06810000
O 1.32411000 1.97372000 2.16282000
H -1.74211000 1.71578000 4.29029000
H 0.86596100 0.95877700 0.80097600
O 3.31574000 12.44050000 14.51890000
H 4.60567000 11.23860000 13.98350000
H 2.10760000 11.55050000 15.42110000
O 22.27440000 1.84495000 16.96000000
H 21.86430000 3.35676000 17.41000000
H 20.78190000 1.14104000 16.05620000
O 8.10725000 5.12493000 12.47780000
H 6.53503000 5.67878000 13.46790000
H 9.70654000 6.39688000 13.85140000
O 4.43623000 21.75420000 5.80624000
H 3.24703000 -0.32046300 4.97330000
H 6.29834000 22.33080000 6.18301000
O 19.38040000 21.15360000 9.81727000
H 19.78800000 19.44840000 9.13208000
H 17.69460000 21.15950000 9.87543000
O 13.71550000 20.86420000 21.51830000
H 15.40320000 20.90400000 20.41380000
H 13.26170000 18.97160000 21.31250000
O 9.17974000 3.15016000 7.27293000
H 10.24370000 4.69741000 7.41661000
H 8.80475000 2.72259000 9.10430000
O 17.43920000 12.37210000 2.20909000
H 18.59470000 12.14130000 0.80330200
H 18.10960000 13.53130000 3.50101000
O 23.39740000 6.53891000 13.38440000
H 21.95670000 6.25917000 12.71140000
H 1.32328000 5.13481000 13.04510000
O 4.44407000 16.88630000 21.40550000
H 3.94767000 15.04730000 20.98990000
H 3.56087000 17.34280000 22.98630000
O 9.72572000 23.05140000 2.90783000
H 9.66461000 -0.64633700 4.74429000
H 10.68620000 21.64740000 2.48542000
O 5.51761000 21.35960000 17.84440000
H 4.64716000 20.16290000 16.60350000
H 4.98040000 21.11740000 19.55300000
O 6.65028000 9.96386000 11.06350000
H 4.52986000 9.32933000 9.77894000
H 8.08010000 9.08447000 10.07250000
    
    &END COORD
  &END SUBSYS
  &DFT
    BASIS_SET_FILE_NAME  BASIS_SET
    POTENTIAL_FILE_NAME  GTH_POTENTIALS
    &QS
      EPS_DEFAULT 1.0E-10
    &END QS
    &MGRID
      NGRIDS 4
      CUTOFF 135
      REL_CUTOFF 115
    &END MGRID
    &XC
      &XC_FUNCTIONAL PADE
      &END XC_FUNCTIONAL
    &END XC
    &SCF
      SCF_GUESS ATOMIC
      EPS_SCF 1.0E-7
      MAX_SCF 300
      &DIAGONALIZATION  ON
        ALGORITHM STANDARD
      &END DIAGONALIZATION
      &MIXING  T
        METHOD BROYDEN_MIXING
        ALPHA 0.4
        NBROYDEN 8
      &END MIXING
    &END SCF
  &END DFT
  &PRINT
    &FORCES ON
    &END FORCES
  &END PRINT
&END FORCE_EVAL
