&GLOBAL
  PROJECT H2O_bulk
  RUN_TYPE ENERGY_FORCE
  PRINT_LEVEL LOW
&END GLOBAL
&FORCE_EVAL
  METHOD Quickstep
  &SUBSYS
    &KIND H
      ELEMENT   H
      BASIS_SET DZVP-GTH-PBE
      POTENTIAL GTH-PBE-q1
    &END KIND
    &KIND O
      ELEMENT   O
      BASIS_SET DZVP-GTH-PBE
      POTENTIAL GTH-PBE-q6
    &END KIND
    &CELL
      A     46.937    0.000000000    0.000000000
      B     0.000000000    44.121    0.000000000
      C     0.000000000    0.000000000    45.182
    &END CELL
    &COORD

O 14.81690000 14.57780000 23.01360000
H 13.25690000 14.04130000 21.78480000
H 15.00380000 13.20330000 24.13460000
O 19.48740000 13.25810000 17.91710000
H 18.85440000 11.73290000 18.55930000
H 18.08640000 14.08370000 17.19430000
O 8.68586000 12.42760000 1.05792000
H 7.29622000 12.84070000 1.98255000
H 9.80076000 13.74100000 1.60695000
O 4.90260000 5.12585000 5.50082000
H 4.19003000 4.79270000 3.82163000
H 3.91955000 6.60027000 6.15894000
O 12.38230000 17.33160000 8.94498000
H 12.41560000 18.02150000 7.01675000
H 10.87870000 18.36740000 9.59061000
O 10.37720000 10.48690000 15.02930000
H 8.70081000 11.27320000 14.30720000
H 10.72330000 9.46813000 13.73200000
O 18.19390000 2.83894000 9.36288000
H 19.43010000 3.72937000 10.39180000
H 17.05020000 4.07541000 8.83346000
O 6.46304000 4.02436000 18.33940000
H 4.92645000 3.78196000 17.30550000
H 7.42195000 4.97971000 17.19590000
O 8.23776000 23.19160000 19.21210000
H 8.81554000 25.60590000 19.44250000
H 6.71866000 23.22020000 19.59800000
O 22.74370000 13.31680000 6.40420000
H 21.77470000 13.75830000 5.34972000
H 22.34070000 14.34140000 7.74901000
O 21.89000000 18.03490000 9.74493000
H 20.39100000 17.14510000 9.08041000
H 21.47020000 18.31000000 11.56130000
O 10.66180000 12.41920000 7.49248000
H 11.43590000 13.95120000 8.13476000
H 8.98512000 12.77940000 6.78753000
O 5.47317000 13.62990000 6.88167000
H 3.86504000 13.00800000 6.51860000
H 5.28606000 15.19200000 7.50077000
O 14.38590000 9.57819000 5.40312000
H 14.04130000 8.06667000 4.10239000
H 12.89920000 10.27730000 5.82436000
O 15.20400000 5.89159000 23.53610000
H 13.63420000 6.83956000 23.94800000
H 15.05610000 4.48995000 24.55380000
O 21.33550000 21.67050000 0.34978400
H 22.24000000 20.28540000 -0.74972400
H 19.63970000 21.00810000 0.12295000
O 3.38881000 4.87349000 13.37130000
H 2.72121000 6.73131000 13.13250000
H 2.11281000 3.76445000 12.76600000
O 22.98970000 18.76350000 14.47770000
H 21.20110000 19.28480000 15.08070000
H 23.83680000 20.20270000 13.94010000
O 21.97240000 6.02098000 20.66270000
H 22.14050000 4.37771000 21.36880000
H 21.60000000 6.62042000 22.23810000
O 14.39050000 0.14023800 7.08229000
H 15.53630000 0.49496800 7.97496000
H 12.84690000 1.16904000 7.66088000
O 12.89360000 22.84230000 21.70450000
H 11.05260000 22.10960000 21.18590000
H 12.42250000 23.61470000 23.23930000
O 5.80699000 13.58980000 14.17440000
H 4.75178000 13.61010000 12.76570000
H 4.86461000 13.97660000 15.75520000
O 24.68070000 13.52300000 15.30090000
H 23.33590000 13.00340000 16.37210000
H 24.33420000 15.27110000 15.04150000
O 2.80002000 20.73510000 21.91500000
H 3.48824000 19.77020000 20.40340000
H 2.20714000 19.36500000 23.00420000
O 10.70590000 3.91850000 14.98890000
H 11.58130000 3.81375000 16.54160000
H 11.89980000 5.09294000 13.84110000
O 16.88880000 19.21540000 0.91576200
H 15.35350000 19.72490000 1.56068000
H 16.52390000 17.47050000 1.01034000
O 18.45930000 8.08776000 8.86719000
H 20.22840000 7.78123000 8.31302000
H 18.27120000 9.86179000 7.98451000
O 24.21950000 8.38694000 13.12270000
H 24.24970000 10.22890000 13.55560000
H 23.49100000 7.47931000 14.36690000
O 9.55432000 3.47046000 6.51749000
H 9.09194000 1.96961000 5.32775000
H 7.82429000 4.34676000 6.91840000
O 15.68830000 18.89390000 19.73670000
H 16.02710000 20.56250000 20.59380000
H 16.01990000 17.68760000 21.34230000
O 13.69960000 3.64018000 19.17870000
H 12.83470000 2.46894000 20.04650000
H 14.15270000 4.75974000 20.53920000
O 5.06220000 13.19210000 20.66930000
H 4.52093000 14.59070000 19.36240000
H 6.92825000 13.44760000 20.74450000
O 7.01790000 3.19721000 23.06120000
H 5.32703000 3.42201000 23.76340000
H 6.94625000 4.83067000 21.81080000
O 6.53029000 21.59130000 9.56709000
H 7.60870000 21.14520000 10.78880000
H 5.62115000 22.87810000 10.56600000
O 1.05881000 1.54393000 21.63230000
H 1.58618000 -0.27415800 21.98650000
H 2.29482000 2.02764000 20.05880000
O 10.27320000 7.68509000 -0.11776500
H 9.59648000 6.12713000 0.34906000
H 9.44376000 9.12761000 0.98104500
O 6.11897000 0.30062800 13.25740000
H 7.62047000 -0.23753800 14.01730000
H 6.49864000 2.20869000 13.14170000
O 18.69350000 21.11130000 16.13920000
H 17.36280000 19.89600000 16.82120000
H 18.60670000 23.03700000 17.87500000
O 1.41818000 8.24019000 7.79303000
H 0.97115400 9.05091000 9.35748000
H 1.71718000 9.60933000 6.79254000
O 16.63840000 18.72820000 10.78020000
H 14.73280000 18.54340000 10.35100000
H 16.57600000 20.37590000 11.44050000
O 21.45890000 7.83271000 1.30796000
H 22.60900000 7.76622000 2.46323000
H 19.94250000 7.21386000 2.45553000
O 20.77550000 4.54780000 14.94810000
H 19.18260000 4.62775000 13.67870000
H 20.29430000 5.58153000 16.35810000
O 17.60580000 11.78930000 1.90359000
H 16.75640000 11.81000000 3.60447000
H 18.37030000 10.05630000 1.96163000
O 21.60450000 2.81984000 1.68934000
H 22.60010000 1.44911000 1.32983000
H 22.44940000 3.19360000 3.53972000
O 0.58364900 19.10340000 4.21616000
H -0.41367800 20.33770000 3.61666000
H 0.93594400 18.28160000 2.52196000
O 11.02290000 7.96708000 10.28300000
H 10.87980000 7.32698000 8.55656000
H 11.82570000 9.65037000 10.07110000
O 10.94960000 19.34100000 17.22680000
H 9.58140000 20.30300000 18.30100000
H 11.84730000 18.32250000 18.51780000
O 4.98869000 17.85660000 17.97270000
H 3.71343000 18.40110000 16.52310000
H 6.78614000 18.05390000 17.11730000
O 8.53601000 23.73180000 3.44909000
H 7.82750000 24.38270000 1.91353000
H 7.41957000 22.35000000 3.81836000
O 16.49250000 2.25940000 3.16352000
H 15.69100000 0.68744800 3.86804000
H 18.14640000 1.77889000 2.65030000
O 2.51618000 21.77370000 15.48970000
H 3.27200000 22.69600000 13.89300000
H 0.94649500 22.88380000 15.59970000
O 21.99640000 22.41430000 8.59443000
H 22.65780000 20.71560000 9.02840000
H 20.36940000 22.12390000 7.73448000
O 12.84800000 20.94660000 3.74393000
H 11.31300000 21.71640000 3.35069000
H 13.28230000 21.98210000 5.30625000
O 2.91639000 5.73742000 1.14992000
H 1.91767000 7.24119000 0.49599600
H -1.74806000 3.84471000 0.75840400
O 10.98160000 12.17410000 19.98090000
H 11.07240000 12.07040000 18.10810000
H 11.84040000 10.28870000 20.26460000
O 5.80085000 19.60940000 4.88381000
H 3.99421000 18.99510000 4.36402000
H 5.64018000 20.08060000 6.99315000
O 1.32332000 10.12960000 22.87110000
H 2.30321000 11.63640000 21.90450000
H -0.37459600 10.25870000 22.22290000
O 0.61668900 2.38187000 5.81469000
H 0.41604400 1.18304000 7.20986000
H 2.31954000 3.01866000 6.21427000
O 24.18850000 0.88709900 12.30370000
H 20.72630000 2.97190000 15.29190000
H 22.92410000 0.30263200 11.23040000
O 1.40276000 15.83230000 24.25710000
H 0.21616000 15.96710000 22.89500000
H 2.83743000 14.64540000 23.36650000
O 3.00722000 17.74780000 10.01980000
H 3.83212000 18.37240000 11.40590000
H 1.45631000 17.14350000 11.18220000
O 17.62320000 8.60720000 19.95920000
H 16.74990000 7.26797000 21.23670000
H 19.32940000 7.96885000 20.30490000
O 21.43970000 13.96190000 22.54740000
H 20.00000000 13.58050000 21.33150000
H 20.74130000 13.90090000 24.25010000
O 9.04216000 17.28450000 12.46790000
H 8.88566000 16.08090000 13.96610000
H 10.70920000 17.64300000 12.51500000
    
    &END COORD
  &END SUBSYS
  &DFT
    BASIS_SET_FILE_NAME  BASIS_SET
    POTENTIAL_FILE_NAME  GTH_POTENTIALS
    &QS
      EPS_DEFAULT 1.0E-10
    &END QS
    &MGRID
      NGRIDS 4
      CUTOFF 135
      REL_CUTOFF 115
    &END MGRID
    &XC
      &XC_FUNCTIONAL PADE
      &END XC_FUNCTIONAL
    &END XC
    &SCF
      SCF_GUESS ATOMIC
      EPS_SCF 1.0E-7
      MAX_SCF 300
      &DIAGONALIZATION  ON
        ALGORITHM STANDARD
      &END DIAGONALIZATION
      &MIXING  T
        METHOD BROYDEN_MIXING
        ALPHA 0.4
        NBROYDEN 8
      &END MIXING
    &END SCF
  &END DFT
  &PRINT
    &FORCES ON
    &END FORCES
  &END PRINT
&END FORCE_EVAL
