&GLOBAL
  PROJECT H2O_bulk
  RUN_TYPE ENERGY_FORCE
  PRINT_LEVEL LOW
&END GLOBAL
&FORCE_EVAL
  METHOD Quickstep
  &SUBSYS
    &KIND H
      ELEMENT   H
      BASIS_SET DZVP-GTH-PBE
      POTENTIAL GTH-PBE-q1
    &END KIND
    &KIND O
      ELEMENT   O
      BASIS_SET DZVP-GTH-PBE
      POTENTIAL GTH-PBE-q6
    &END KIND
    &CELL
      A     46.937    0.000000000    0.000000000
      B     0.000000000    44.121    0.000000000
      C     0.000000000    0.000000000    45.182
    &END CELL
    &COORD

O 8.74005000 5.20796000 2.06748000
H 7.46973000 3.91442000 2.01563000
H 9.02405000 5.68027000 3.73428000
O 0.61291000 19.97550000 1.50376000
H 22.96570000 19.77090000 0.15040500
H 1.89832000 20.54170000 0.62071000
O 11.01980000 22.80970000 19.97360000
H 10.95430000 20.92940000 19.74670000
H 11.57020000 -0.30284300 21.87580000
O 15.88210000 10.71970000 2.83110000
H 16.79290000 10.11940000 4.24269000
H 14.22050000 11.13910000 3.34674000
O 21.25670000 9.73017000 18.89990000
H 21.85360000 11.38800000 18.33250000
H 20.24250000 10.04340000 20.39440000
O 0.69464500 9.47673000 1.04002000
H 22.81960000 10.53630000 0.73664200
H 0.09272100 7.88569000 1.77320000
O 22.92640000 15.09010000 13.76860000
H 21.24010000 15.47280000 14.08700000
H -0.90620000 13.32780000 13.41390000
O 3.28635000 9.32841000 9.60267000
H 4.15457000 7.95115000 8.66589000
H 2.96686000 10.67630000 8.34672000
O 10.53640000 12.03460000 1.54644000
H 9.81007000 10.91210000 2.66031000
H 11.59900000 11.14370000 0.22171000
O 10.97540000 16.15150000 5.73716000
H 9.54150000 15.72830000 6.74117000
H 10.41260000 15.97320000 3.95883000
O 5.42156000 22.54620000 22.50220000
H 6.62424000 21.68900000 21.39930000
H 4.43334000 23.57170000 21.34300000
O 19.52910000 6.92827000 15.19450000
H 17.85170000 6.72652000 15.15130000
H 20.25220000 8.47119000 17.26560000
O 21.01890000 23.29470000 19.22040000
H 20.43810000 0.94778900 20.50740000
H 21.69350000 0.69323100 17.99140000
O 23.17630000 14.64810000 18.89530000
H 23.20170000 14.97180000 16.95280000
H 22.53780000 16.09560000 19.53930000
O 10.94740000 22.00930000 2.74792000
H 9.23069000 21.32220000 3.16550000
H 11.57520000 20.78400000 1.69014000
O 4.65662000 23.22840000 10.14460000
H 4.94958000 -0.24135800 8.41923000
H 3.34474000 0.83762000 10.58580000
O 5.61932000 10.00510000 3.84300000
H 6.23213000 8.97164000 5.02229000
H 4.38135000 9.28912000 3.19384000
O 18.10410000 20.76910000 13.76530000
H 17.74620000 18.81510000 13.30360000
H 16.85200000 21.89970000 13.19390000
O 1.78337000 4.28565000 0.74767300
H 2.07318000 3.78166000 22.87710000
H 0.00640600 3.43982000 0.90729200
O 13.91040000 9.07382000 20.53620000
H 15.09060000 8.36781000 21.17890000
H 12.51640000 7.71272000 20.64970000
O 5.78149000 19.80430000 15.44060000
H 4.14221000 19.22530000 14.67420000
H 5.36044000 20.86550000 16.83640000
O 10.02370000 5.78581000 20.52380000
H 9.89649000 5.32593000 22.35900000
H 8.27668000 5.64875000 19.90340000
O 12.91490000 0.91634900 15.28160000
H 13.70630000 2.59181000 15.38330000
H 12.01060000 0.48456800 16.99950000
O 6.17778000 5.43431000 7.42187000
H 8.01412000 5.65680000 7.43918000
H 5.89187000 4.33981000 6.40310000
O 3.34883000 10.79550000 14.28800000
H 2.90709000 9.88943000 12.66700000
H 5.16088000 12.20100000 13.30360000
O 14.57580000 5.88976000 13.23950000
H 13.84060000 5.54009000 11.97090000
H 13.50060000 6.59940000 14.53630000
O 18.63930000 7.58515000 23.10910000
H 18.82820000 6.06554000 0.41957300
H 18.82880000 9.12855000 0.55023900
O 5.71162000 17.58960000 9.29167000
H 4.23285000 18.83900000 9.59152000
H 7.13796000 18.01100000 10.65110000
O 4.13192000 4.45628000 15.20350000
H 3.64154000 5.44235000 16.55730000
H 2.70446000 4.04251000 13.99200000
O 13.92820000 11.24230000 15.92680000
H 14.06390000 10.05420000 18.58640000
H 12.60430000 10.28730000 15.27620000
O 8.58882000 13.28800000 19.08160000
H 6.67034000 13.69190000 19.43490000
H 9.39846000 14.56490000 19.95320000
O 21.20170000 8.36484000 10.56360000
H 22.56560000 9.28204000 10.11760000
H 20.75780000 8.14876000 12.31440000
O 9.79595000 0.30308400 10.94170000
H 8.01830000 0.16404000 11.27880000
H 10.27160000 1.94573000 11.93000000
O 4.05353000 15.85380000 2.38899000
H 3.88094000 14.74020000 1.09928000
H 2.55294000 16.96100000 2.19430000
O 19.26350000 2.70360000 0.41089800
H 20.21430000 1.32928000 1.38275000
H 17.63680000 2.07299000 0.25606900
O 6.62183000 19.74740000 3.90444000
H 6.62441000 17.98690000 3.37754000
H 6.46790000 19.76730000 5.82979000
O 14.99930000 16.51570000 17.67880000
H 16.27160000 15.49740000 16.85950000
H 13.60340000 14.82540000 16.86490000
O 2.97345000 13.95040000 7.02111000
H 3.80808000 14.06540000 5.32167000
H 5.08202000 16.06720000 8.94097000
O 9.23462000 13.69970000 13.85910000
H 9.39005000 15.81110000 14.16330000
H 9.78086000 13.11910000 15.97200000
O 17.27550000 14.10450000 13.63970000
H 15.49100000 14.43100000 12.82010000
H 16.96070000 12.55430000 13.85000000
O 22.07380000 15.59120000 5.33249000
H 0.18451200 14.97240000 6.05723000
H 20.68870000 14.40690000 7.10970000
O 14.82320000 3.77882000 8.79733000
H 16.18430000 3.97484000 7.67697000
H 13.74240000 2.93115000 7.55845000
O 15.33140000 17.78800000 9.74700000
H 14.29510000 16.40910000 9.53294000
H 14.45640000 19.27600000 9.44975000
O 19.99760000 4.94286000 6.97127000
H 20.69270000 5.43445000 8.75220000
H 21.21070000 3.87514000 6.19258000
O 20.60700000 2.01105000 15.08330000
H 19.73910000 3.54117000 15.45130000
H 19.52590000 1.10643000 14.02980000
O 9.45634000 18.83120000 12.62310000
H 8.87125000 20.28750000 12.83210000
H 11.07830000 19.16060000 11.64110000
O 20.71940000 18.66870000 21.32010000
H 19.75130000 20.19080000 21.11480000
H 19.34140000 17.64260000 22.29520000
O 2.97757000 8.22325000 18.47880000
H 1.10679000 8.19080000 18.24420000
H 3.53168000 9.34673000 16.97750000
O 11.23340000 6.94460000 6.69384000
H 10.94770000 8.57759000 7.64501000
H 13.13050000 6.46279000 7.32953000
O 2.71750000 1.67688000 19.43610000
H 3.53685000 1.84280000 17.80490000
H 1.09264000 0.79115400 19.45580000
O 8.80133000 7.09881000 13.46590000
H 7.56086000 6.37374000 12.85470000
H 8.10030000 8.71453000 14.14780000
O 3.91665000 12.78810000 21.11060000
H 3.89238000 11.10690000 21.96780000
H 2.48286000 12.86260000 19.80870000
O 18.18930000 11.96230000 7.80628000
H 19.37380000 10.53340000 8.43266000
H 17.40420000 12.24490000 9.39412000
O 14.24490000 2.84824000 1.02564000
H 13.04010000 4.41816000 24.37580000
H 12.28320000 0.99789600 2.74167000
O 21.42160000 22.87420000 3.91419000
H 22.38800000 21.38370000 3.24516000
H 20.20500000 22.30250000 4.52189000
O 16.61280000 18.47160000 0.63196300
H 16.64060000 19.60470000 3.59391000
H 17.06640000 16.80120000 1.07657000
O 11.09410000 16.76640000 23.35610000
H 12.98510000 17.41390000 22.91490000
H 11.06180000 14.79760000 -0.37237100
O 13.71890000 22.61500000 7.79953000
H 12.57690000 23.17350000 9.12703000
H 12.72890000 22.10890000 6.44766000
O 18.32650000 19.26100000 5.26586000
H 19.46640000 18.02180000 5.21247000
H 17.17400000 19.05710000 6.89902000
O 1.13603000 3.11463000 11.16890000
H 23.23400000 3.54085000 11.27940000
H 1.75856000 3.80351000 9.83663000
O 17.08840000 14.30430000 22.38480000
H 16.63340000 12.54550000 23.15260000
H 15.88120000 14.77020000 21.49290000
O 0.64644900 20.51070000 13.41850000
H 23.14260000 21.29710000 14.26550000
H 23.90390000 18.66900000 13.59710000
O 5.54432000 1.68493000 3.28268000
H 4.76993000 0.08236700 2.50631000
H 4.43230000 2.92814000 2.61750000
O 12.91890000 12.11780000 9.55318000
H 12.51790000 13.09570000 7.67322000
H 6.91801000 13.57810000 11.98510000
    
    &END COORD
  &END SUBSYS
  &DFT
    BASIS_SET_FILE_NAME  BASIS_SET
    POTENTIAL_FILE_NAME  GTH_POTENTIALS
    &QS
      EPS_DEFAULT 1.0E-10
    &END QS
    &MGRID
      NGRIDS 4
      CUTOFF 135
      REL_CUTOFF 115
    &END MGRID
    &XC
      &XC_FUNCTIONAL PADE
      &END XC_FUNCTIONAL
    &END XC
    &SCF
      SCF_GUESS ATOMIC
      EPS_SCF 1.0E-7
      MAX_SCF 300
      &DIAGONALIZATION  ON
        ALGORITHM STANDARD
      &END DIAGONALIZATION
      &MIXING  T
        METHOD BROYDEN_MIXING
        ALPHA 0.4
        NBROYDEN 8
      &END MIXING
    &END SCF
  &END DFT
  &PRINT
    &FORCES ON
    &END FORCES
  &END PRINT
&END FORCE_EVAL
