&GLOBAL
  PROJECT H2O_bulk
  RUN_TYPE ENERGY_FORCE
  PRINT_LEVEL LOW
&END GLOBAL
&FORCE_EVAL
  METHOD Quickstep
  &SUBSYS
    &KIND H
      ELEMENT   H
      BASIS_SET DZVP-GTH-PBE
      POTENTIAL GTH-PBE-q1
    &END KIND
    &KIND O
      ELEMENT   O
      BASIS_SET DZVP-GTH-PBE
      POTENTIAL GTH-PBE-q6
    &END KIND
    &CELL
      A     46.937    0.000000000    0.000000000
      B     0.000000000    44.121    0.000000000
      C     0.000000000    0.000000000    45.182
    &END CELL
    &COORD

O 23.14730000 16.46640000 9.52967000
H -0.28401400 17.31220000 8.26467000
H 21.84860000 15.78970000 8.30642000
O 12.74060000 -0.48915100 18.00550000
H 13.42180000 1.13062000 17.84830000
H 12.40540000 23.37670000 19.76080000
O 17.51190000 18.58060000 18.45640000
H 18.07370000 19.70660000 17.06200000
H 15.79020000 18.86830000 18.37910000
O 2.24335000 19.49550000 12.90420000
H 0.82600500 18.42980000 13.11550000
H 2.94657000 19.66750000 14.53900000
O 23.43100000 9.87464000 8.90705000
H 23.83860000 8.17127000 9.42342000
H -0.30278100 11.28280000 9.84440000
O 5.35337000 20.82030000 19.15410000
H 5.37400000 22.23620000 17.99160000
H 3.69128000 20.82950000 19.87420000
O 6.81641000 15.25160000 7.86430000
H 7.79389000 17.03360000 8.27298000
H 6.28770000 14.55000000 9.49079000
O 11.74680000 23.09660000 22.82610000
H 12.19720000 0.02336700 23.81470000
H 10.38070000 22.11380000 23.50430000
O -0.31479800 1.86086000 15.46620000
H 1.22445000 2.81715000 15.99250000
H 0.72496900 0.51705600 15.98450000
O 0.28553600 23.10610000 21.15050000
H 23.97300000 21.57150000 22.00080000
H -0.54374700 -0.28099500 22.30820000
O 19.75190000 20.87240000 9.86881000
H 20.05910000 21.37960000 8.10403000
H 20.74630000 19.32830000 10.01680000
O 7.51730000 11.07510000 4.15689000
H 9.10997000 10.23050000 3.70556000
H 8.33287000 12.38980000 5.96756000
O 21.80290000 18.84010000 22.82300000
H 21.08680000 18.81440000 21.05570000
H 23.77080000 18.29820000 22.82300000
O 4.66754000 4.71291000 16.34170000
H 5.62460000 6.08358000 15.59130000
H 4.65827000 4.79068000 18.14570000
O -0.57217200 4.43028000 9.99035000
H 0.85659700 3.28350000 10.06770000
H 22.48600000 3.99919000 10.96470000
O 8.57088000 5.48988000 0.10614400
H 7.87138000 4.46148000 1.38965000
H 9.34440000 6.94227000 0.77636300
O 14.92900000 18.04170000 10.68050000
H 13.83250000 18.95910000 9.57894000
H 16.67780000 18.68460000 10.24010000
O 11.75110000 3.38581000 8.35440000
H 10.65040000 1.85655000 7.42288000
H 9.95568000 4.30840000 9.05042000
O 19.58180000 19.57960000 3.50942000
H 19.69570000 18.03210000 4.45270000
H 19.41620000 19.34420000 1.65783000
O 11.04600000 14.37160000 19.57110000
H 12.56520000 13.17170000 19.16440000
H 9.83606000 15.27270000 18.54370000
O 7.67568000 17.28510000 16.10240000
H 9.56449000 18.02350000 15.73040000
H 6.51797000 18.62880000 16.88520000
O 11.68590000 8.83682000 12.59660000
H 10.94390000 7.85458000 11.26810000
H 12.93380000 10.30080000 12.32710000
O 5.00541000 2.72118000 2.82801000
H 5.96226000 1.33816000 3.33687000
H 4.48101000 3.42162000 4.42323000
O 7.52384000 5.91611000 10.16170000
H 6.19643000 6.19340000 9.01874000
H 6.76098000 5.27600000 11.74170000
O 19.13830000 8.60002000 3.98619000
H 17.82560000 7.87639000 4.90449000
H 19.02610000 8.67993000 2.09313000
O 7.88232000 21.06040000 10.93560000
H 7.15255000 22.55160000 12.40030000
H 6.18535000 20.26580000 11.35990000
O 23.61540000 8.31634000 15.82270000
H -0.30737700 9.41248000 14.57310000
H 23.22980000 9.79506000 16.99740000
O 7.63661000 8.49359000 16.47650000
H 8.62258000 7.54640000 17.60030000
H 9.06918000 8.72119000 15.20480000
O 15.99560000 4.12302000 18.07950000
H 17.59300000 3.54615000 18.92180000
H 16.21080000 4.03078000 16.32890000
O 17.24340000 8.26867000 22.49900000
H 16.66550000 8.73716000 20.73650000
H 16.63950000 6.81300000 23.35480000
O 20.03320000 22.44140000 15.52470000
H 19.86080000 -0.17514000 15.41550000
H 19.38450000 21.92420000 13.85560000
O 4.09128000 7.43928000 6.48318000
H 4.37308000 8.54767000 4.96098000
H 2.41418000 8.02797000 6.76842000
O 10.90530000 6.16201000 19.36570000
H 12.59930000 5.50443000 19.12430000
H 10.59820000 5.48704000 21.32640000
O 0.25509400 16.16050000 18.19010000
H 1.03605000 15.53630000 19.73370000
H 23.85250000 14.85240000 17.23050000
O 20.39680000 14.09100000 5.43570000
H 19.97860000 12.31300000 5.15262000
H 21.67670000 13.97370000 3.93141000
O 12.36320000 6.79266000 4.26914000
H 12.59080000 5.49361000 5.56483000
H 12.20000000 8.37618000 5.30647000
O 2.63735000 11.89760000 21.10970000
H 4.38978000 12.10910000 21.70760000
H 3.26591000 10.01440000 20.50920000
O 17.94930000 8.94207000 10.46100000
H 19.59210000 9.49810000 9.88612000
H 16.31810000 10.00550000 10.47270000
O 14.62930000 10.50170000 17.97260000
H 15.83740000 11.96070000 17.47460000
H 14.81540000 9.46447000 16.34230000
O 19.39320000 4.26362000 13.39060000
H 18.02470000 5.10855000 12.47050000
H 20.77730000 5.43760000 13.43620000
O 15.42760000 12.80620000 10.99620000
H 15.80280000 13.41450000 12.80220000
H 14.17160000 14.20910000 10.77910000
O 18.62800000 13.86390000 16.16670000
H 18.09380000 15.34420000 17.03250000
H 19.90450000 12.00120000 17.53780000
O 7.48739000 20.02680000 -0.09144300
H 7.64975000 18.42970000 0.70475100
H 6.61065000 19.79160000 22.89960000
O -0.13036100 22.51740000 6.93620000
H 24.13260000 22.97150000 3.75090000
H 0.97193900 23.87910000 7.17915000
O 14.79470000 3.36213000 0.05452800
H 13.00740000 3.58995000 0.49962200
H 15.70970000 3.19234000 1.50478000
O 12.65650000 18.98450000 15.72460000
H 13.31730000 19.47450000 13.59870000
H 13.18010000 20.76980000 16.16450000
O 2.79375000 17.37140000 4.84185000
H 2.31247000 19.18930000 5.26446000
H 3.92151000 16.46330000 6.05718000
O 3.51548000 0.59861800 10.40460000
H 3.04863000 23.56980000 11.18220000
H 5.08441000 0.44148900 9.41515000
O -0.06056900 14.20840000 1.69593000
H 0.85806900 15.41490000 2.65797000
H 1.44005000 13.60810000 0.84184800
O 7.35063000 13.94990000 23.60740000
H 7.44925000 12.68730000 0.38097600
H 9.01364000 14.20720000 22.89310000
O 17.08190000 2.71615000 4.48690000
H 16.95060000 4.65039000 5.10979000
H 18.97390000 2.59697000 4.48698000
O 22.36880000 4.27523000 4.42472000
H 22.90360000 4.26451000 6.23811000
H 22.09510000 5.87859000 3.58172000
O 7.72274000 23.29050000 5.75558000
H 8.36424000 22.44360000 7.26675000
H 7.95475000 21.52040000 4.81209000
O 15.00820000 16.18980000 -0.25163900
H 16.20830000 17.31650000 23.47670000
H 13.75740000 15.89390000 22.11980000
O 0.68999300 12.91920000 12.59060000
H -0.11705000 14.20780000 11.56590000
H 2.54215000 13.77550000 12.47800000
O 21.80480000 10.41070000 20.28200000
H 20.23360000 9.56891000 21.02190000
H 23.02740000 11.58780000 21.21580000
O 13.32100000 11.96390000 2.29643000
H 14.55350000 13.53610000 1.68774000
H 13.85660000 10.29770000 1.50386000
O 21.13640000 3.81904000 19.97640000
H 22.59510000 3.31975000 19.02160000
H 21.65650000 5.21549000 21.06780000
O 11.44670000 17.77600000 6.28220000
H 13.01940000 18.34380000 5.36175000
H 11.16230000 16.24370000 5.11703000
O 0.47169600 0.39320500 2.23363000
H -0.38725200 2.21189000 2.11402000
H 2.39701000 0.49132500 2.00778000
O 7.32969000 0.59057900 15.61280000
H 6.24310000 2.15101000 16.23650000
H 8.59413000 0.26461100 16.93270000
O 4.14528000 6.66033000 22.06810000
H 5.82686000 6.18799000 22.82930000
H 3.33809000 5.59868000 23.33740000
O 5.95935000 13.41630000 12.81300000
H 5.90793000 14.92790000 13.95150000
H 6.96369000 12.44670000 13.93930000
O 15.12610000 22.20210000 6.12048000
H 16.65090000 21.16020000 5.85155000
H 15.66830000 23.58220000 4.78448000
    
    &END COORD
  &END SUBSYS
  &DFT
    BASIS_SET_FILE_NAME  BASIS_SET
    POTENTIAL_FILE_NAME  GTH_POTENTIALS
    &QS
      EPS_DEFAULT 1.0E-10
    &END QS
    &MGRID
      NGRIDS 4
      CUTOFF 135
      REL_CUTOFF 115
    &END MGRID
    &XC
      &XC_FUNCTIONAL PADE
      &END XC_FUNCTIONAL
    &END XC
    &SCF
      SCF_GUESS ATOMIC
      EPS_SCF 1.0E-7
      MAX_SCF 300
      &DIAGONALIZATION  ON
        ALGORITHM STANDARD
      &END DIAGONALIZATION
      &MIXING  T
        METHOD BROYDEN_MIXING
        ALPHA 0.4
        NBROYDEN 8
      &END MIXING
    &END SCF
  &END DFT
  &PRINT
    &FORCES ON
    &END FORCES
  &END PRINT
&END FORCE_EVAL
