&GLOBAL
  PROJECT H2O_bulk
  RUN_TYPE ENERGY_FORCE
  PRINT_LEVEL LOW
&END GLOBAL
&FORCE_EVAL
  METHOD Quickstep
  &SUBSYS
    &KIND H
      ELEMENT   H
      BASIS_SET DZVP-GTH-PBE
      POTENTIAL GTH-PBE-q1
    &END KIND
    &KIND O
      ELEMENT   O
      BASIS_SET DZVP-GTH-PBE
      POTENTIAL GTH-PBE-q6
    &END KIND
    &CELL
      A     46.937    0.000000000    0.000000000
      B     0.000000000    44.121    0.000000000
      C     0.000000000    0.000000000    45.182
    &END CELL
    &COORD

O 3.45983000 2.67438000 8.84195000
H 2.01031000 3.77155000 8.89246000
H 3.12705000 1.34993000 10.04940000
O 14.77200000 5.37947000 9.43727000
H 13.58660000 5.64437000 8.08345000
H 15.76660000 3.99508000 8.77316000
O 15.74970000 21.08190000 4.46452000
H 14.70680000 21.67780000 3.07418000
H 16.00850000 19.27640000 4.25054000
O 6.36197000 5.86955000 14.96340000
H 7.24862000 7.08079000 16.01220000
H 7.41125000 5.46711000 13.51790000
O 6.61973000 15.98300000 15.78010000
H 5.78432000 14.50990000 16.67830000
H 5.97325000 17.37600000 16.63960000
O 4.14009000 22.08980000 12.20560000
H 2.47193000 21.42040000 11.80590000
H 4.20008000 22.27710000 14.01740000
O 16.21130000 11.72920000 7.98636000
H 16.54060000 13.38190000 7.28291000
H 14.80140000 12.06210000 9.06325000
O 7.97348000 15.87820000 7.47684000
H 6.66300000 14.81040000 8.14848000
H 8.49767000 15.04850000 5.92280000
O 14.00930000 0.59031200 1.06880000
H 15.80650000 0.84598700 1.00353000
H 13.37400000 1.69720000 -0.21248300
O 0.83680000 11.32480000 13.78890000
H -0.71005800 12.27140000 13.60660000
H 2.25782000 12.34810000 13.26640000
O 18.75850000 10.54540000 1.56715000
H 17.99290000 10.48070000 -0.10131600
H 18.13370000 12.09730000 2.26033000
O 2.76988000 4.78620000 18.61020000
H 3.92317000 4.67994000 20.04610000
H 3.80826000 4.60002000 17.09440000
O 16.37000000 15.68750000 4.46957000
H 18.19910000 15.89010000 4.37272000
H 15.90630000 15.10490000 2.77642000
O 5.73803000 20.89650000 18.62680000
H 7.38456000 21.00280000 17.87120000
H 5.95197000 19.89000000 20.14920000
O 14.00450000 14.26690000 24.03110000
H 14.49610000 12.94670000 22.84730000
H 13.77510000 15.79880000 23.08300000
O 4.51112000 1.80835000 3.68878000
H 4.36077000 1.66748000 5.50834000
H 6.18414000 1.16257000 3.30688000
O 0.43884900 22.65740000 17.49470000
H 0.65448300 24.43530000 17.88610000
H 2.12549000 22.01410000 17.82790000
O 12.07790000 15.14900000 16.03990000
H 12.41650000 14.44970000 14.39320000
H 10.24670000 15.37510000 15.95380000
O 6.85467000 21.36440000 8.05143000
H 6.06996000 21.47500000 9.71628000
H 6.15502000 19.79360000 7.42717000
O 3.75422000 12.72080000 18.63690000
H 0.66023700 13.50940000 19.32090000
H 4.56106000 11.63730000 19.89470000
O 19.68440000 9.19202000 10.27980000
H 18.69590000 7.81219000 10.84070000
H 18.41130000 10.06450000 9.20972000
O 23.33300000 1.68758000 1.13186000
H 25.14250000 1.58350000 0.89020400
H 23.14750000 2.89827000 2.50473000
O 11.50440000 9.96978000 10.41740000
H 11.82240000 11.74330000 10.66750000
H 12.92070000 9.23841000 9.52745000
O 20.48730000 21.90330000 6.32698000
H 21.05320000 21.46860000 4.63458000
H 18.68160000 21.56470000 6.27835000
O 4.98325000 5.07282000 -0.26988800
H 4.31828000 6.65539000 0.37654300
H 5.21908000 3.98124000 1.19303000
O 15.60970000 10.00620000 21.33310000
H 15.22340000 10.45770000 19.57810000
H 15.24590000 8.16530000 21.40120000
O 15.53260000 19.04330000 21.67440000
H 16.73840000 18.03010000 20.85410000
H 15.74150000 20.61780000 20.78890000
O 12.40350000 15.27050000 10.63230000
H 13.22850000 16.85000000 10.41880000
H 10.62960000 15.62300000 10.20330000
O 19.90290000 4.08176000 13.88590000
H 21.22530000 3.60622000 12.74080000
H 20.82100000 4.99674000 15.17150000
O 4.54101000 18.08670000 23.32440000
H 3.90896000 16.42030000 22.91190000
H 6.29411000 17.85980000 23.78220000
O 15.04180000 5.63942000 14.73620000
H 16.74970000 5.38389000 14.06240000
H 14.03570000 5.99704000 13.25220000
O 4.82694000 10.29240000 1.18291000
H 4.40368000 10.35060000 2.97201000
H 3.90234000 11.63290000 0.37018300
O 14.87710000 6.25484000 2.56688000
H 15.78330000 4.86603000 3.35018000
H 16.02730000 7.68165000 2.52080000
O 14.24060000 5.46105000 20.17510000
H 14.02260000 5.97338000 18.43830000
H 15.47630000 4.13365000 20.18220000
O 0.38094100 9.67667000 6.78169000
H -0.45429500 9.45706000 8.40055000
H 0.95782700 11.38730000 6.66783000
O 10.95480000 -0.10490600 10.19610000
H 10.82740000 1.69537000 10.17840000
H 9.41106000 -0.78043700 9.45579000
O 17.13060000 22.76770000 18.04080000
H 15.77730000 22.38840000 16.87420000
H 18.54780000 22.99820000 16.94010000
O 9.02033000 23.16780000 3.64077000
H 8.23497000 22.44130000 5.12976000
H 9.77525000 21.86980000 2.60771000
O 18.04780000 2.87148000 5.75874000
H 18.57530000 1.15239000 6.03499000
H 19.58970000 3.70461000 5.19438000
O 5.21637000 11.48210000 9.44321000
H 4.06006000 10.21720000 8.80996000
H 6.71389000 11.06460000 8.48421000
O 11.07400000 22.95840000 19.48860000
H 11.17050000 23.59220000 17.75640000
H 9.89419000 23.97400000 20.45990000
O 1.13101000 13.70090000 23.77440000
H -0.17634000 13.78060000 25.04830000
H 0.19998800 14.09430000 22.34670000
O 12.94380000 0.21491100 15.03000000
H 13.63780000 1.90947000 14.94610000
H 12.27490000 -0.15959200 13.36360000
O 18.15970000 1.81599000 22.05030000
H 18.12260000 0.46764300 20.98440000
H 19.96320000 2.20077000 22.37680000
O -0.68775800 20.29180000 2.11457000
H 0.61489100 19.01940000 1.92535000
H 0.11802600 21.87800000 1.70138000
O 20.51800000 13.90930000 12.60760000
H 19.88560000 12.45430000 11.67910000
H 19.13490000 14.69010000 13.53870000
O 18.14100000 19.80180000 13.73310000
H 17.27840000 18.93430000 15.09350000
H 17.02750000 19.68900000 12.28920000
O 22.51940000 7.91981000 17.43430000
H 23.74260000 6.70205000 18.07120000
H 23.57310000 8.91722000 16.31050000
O 21.90200000 18.58370000 20.24530000
H 21.54240000 19.20150000 21.92260000
H 23.10280000 19.82300000 19.57650000
O 5.69055000 7.52226000 5.88513000
H 6.70056000 6.22650000 5.07743000
H 4.14432000 6.71272000 6.37702000
O 22.67460000 13.96810000 19.00170000
H 22.81950000 14.15410000 17.18830000
H 21.88990000 15.71290000 19.50000000
O 10.09020000 12.65160000 3.46079000
H 9.26938000 11.04320000 3.35354000
H 11.12890000 12.80290000 1.96824000
O 1.63759000 6.34439000 12.20290000
H 3.33168000 5.79640000 12.59480000
H 1.61039000 7.96581000 13.04980000
O 9.29364000 5.47018000 11.02860000
H 9.48172000 7.25985000 11.41190000
H 8.69468000 5.45771000 9.30065000
O 10.22920000 3.75069000 22.96090000
H 8.51106000 4.39254000 22.89230000
H 11.32750000 5.14729000 22.59570000
O 15.06710000 20.45860000 9.43321000
H 14.55250000 20.43560000 7.73100000
H 14.22460000 21.98420000 10.03150000
O 21.48990000 6.26472000 3.88839000
H 22.40940000 7.81680000 4.27782000
H 20.17550000 6.83555000 2.77236000
O 17.90830000 9.77075000 16.45140000
H 19.44570000 9.12015000 17.23420000
H 16.84390000 8.29409000 16.26730000
O 21.52570000 15.78890000 3.03278000
H 22.48140000 15.01430000 4.37973000
H 21.60900000 17.54590000 3.53487000
O 9.90910000 19.18360000 22.31480000
H 10.30360000 20.44950000 21.01300000
H 11.35330000 18.13330000 21.95730000
O 17.25840000 15.12000000 16.59940000
H 17.82330000 13.37530000 16.77190000
H 15.42720000 15.03150000 16.86340000
O 22.17880000 15.60320000 8.10617000
H 21.73230000 14.51770000 9.50449000
H 22.41610000 17.19070000 9.01033000
O 22.92100000 20.21660000 10.64010000
H 21.76170000 20.78160000 9.31718000
H 21.91090000 20.19890000 12.15670000
O 10.35700000 4.29274000 4.91658000
H 11.74970000 5.43860000 4.68204000
H 10.71960000 3.08444000 3.58278000
    
    &END COORD
  &END SUBSYS
  &DFT
    BASIS_SET_FILE_NAME  BASIS_SET
    POTENTIAL_FILE_NAME  GTH_POTENTIALS
    &QS
      EPS_DEFAULT 1.0E-10
    &END QS
    &MGRID
      NGRIDS 4
      CUTOFF 135
      REL_CUTOFF 115
    &END MGRID
    &XC
      &XC_FUNCTIONAL PADE
      &END XC_FUNCTIONAL
    &END XC
    &SCF
      SCF_GUESS ATOMIC
      EPS_SCF 1.0E-7
      MAX_SCF 300
      &DIAGONALIZATION  ON
        ALGORITHM STANDARD
      &END DIAGONALIZATION
      &MIXING  T
        METHOD BROYDEN_MIXING
        ALPHA 0.4
        NBROYDEN 8
      &END MIXING
    &END SCF
  &END DFT
  &PRINT
    &FORCES ON
    &END FORCES
  &END PRINT
&END FORCE_EVAL
