&GLOBAL
  PROJECT H2O_bulk
  RUN_TYPE ENERGY_FORCE
  PRINT_LEVEL LOW
&END GLOBAL
&FORCE_EVAL
  METHOD Quickstep
  &SUBSYS
    &KIND H
      ELEMENT   H
      BASIS_SET DZVP-GTH-PBE
      POTENTIAL GTH-PBE-q1
    &END KIND
    &KIND O
      ELEMENT   O
      BASIS_SET DZVP-GTH-PBE
      POTENTIAL GTH-PBE-q6
    &END KIND
    &CELL
      A     46.937    0.000000000    0.000000000
      B     0.000000000    44.121    0.000000000
      C     0.000000000    0.000000000    45.182
    &END CELL
    &COORD

O 5.23260000 17.41800000 19.07980000
H 4.48604000 19.01950000 18.42280000
H 3.90442000 16.12470000 18.53560000
O 5.32170000 7.17309000 -0.38980400
H 4.58148000 8.92304000 -0.11056300
H 4.34914000 5.67049000 0.54328200
O 13.30300000 10.03050000 14.16870000
H 11.91140000 11.08920000 13.91010000
H 12.65040000 8.54130000 14.87970000
O 7.56119000 16.81650000 23.64640000
H 8.91329000 17.46230000 22.95540000
H 6.38803000 16.73690000 22.32060000
O 9.94920000 5.81129000 15.49980000
H 10.98040000 4.29534000 15.76500000
H 8.64431000 6.03492000 16.76240000
O 15.63980000 1.00956000 11.45490000
H 15.63660000 2.77984000 10.71800000
H 14.44260000 0.05807700 10.57320000
O 9.84165000 13.17510000 18.00410000
H 8.58966000 14.58750000 18.35470000
H 11.23450000 13.78040000 18.81510000
O 20.34150000 9.37738000 7.19283000
H 20.66650000 9.03779000 8.95504000
H 21.10280000 10.93150000 6.77147000
O 3.30913000 23.64170000 0.73461200
H 5.02529000 23.96450000 1.12636000
H 2.85855000 21.81900000 0.88955700
O 13.62660000 17.61090000 18.19660000
H 12.48790000 17.40170000 17.04390000
H 15.15640000 17.31860000 17.07300000
O 21.92600000 23.63530000 5.27262000
H 22.67130000 25.14330000 5.94934000
H 20.26500000 24.25390000 4.53319000
O 18.96530000 8.06214000 2.13618000
H 20.63760000 7.91365000 3.11684000
H 19.82410000 8.45220000 0.57554400
O 13.16940000 7.48962000 5.69404000
H 14.18660000 6.11966000 5.23887000
H 14.28190000 8.80004000 4.96194000
O 13.62410000 1.97856000 16.34950000
H 12.51850000 0.47888200 16.08320000
H 15.03520000 1.76252000 15.00350000
O 22.56030000 1.41139000 14.56940000
H 21.88230000 1.47083000 16.25760000
H 21.21450000 2.58628000 13.47310000
O 11.42770000 11.32170000 2.52264000
H 10.64970000 12.28300000 3.67941000
H 10.64920000 11.94180000 0.83425200
O 0.69997200 6.56058000 2.88285000
H 1.50932000 8.46177000 2.76738000
H 1.72318000 6.01889000 4.43992000
O 23.03930000 3.31111000 7.86249000
H 21.33190000 3.88969000 7.56044000
H 24.16320000 4.74586000 7.25224000
O 3.12416000 5.73900000 8.08645000
H 4.44199000 4.59540000 8.05181000
H 3.46476000 7.14101000 7.28028000
O 6.75289000 18.53880000 7.77837000
H 3.38486000 20.01130000 8.66947000
H 6.78169000 17.47710000 9.21081000
O 19.70040000 19.25500000 6.81490000
H 20.54460000 20.78150000 6.33882000
H 18.16710000 19.15220000 5.64551000
O 4.53569000 11.15840000 7.23494000
H 6.33951000 10.36420000 7.16697000
H 4.85233000 12.32010000 8.91182000
O 9.60271000 22.16520000 16.44030000
H 10.07960000 20.69860000 15.43560000
H 9.31599000 21.60150000 18.33670000
O 9.32113000 9.33387000 8.35598000
H 10.49190000 8.22471000 7.33856000
H 8.89916000 8.05764000 9.82692000
O 19.17100000 23.36920000 1.42669000
H 19.83830000 24.88340000 0.71066900
H 20.25400000 22.18360000 0.72353000
O 4.94759000 1.67467000 4.72259000
H 3.24599000 2.51707000 4.30202000
H 6.04716000 3.04832000 4.26884000
O 2.93527000 21.22490000 16.06030000
H 4.50393000 22.25110000 16.04750000
H 2.07659000 22.34340000 14.98400000
O 3.58439000 18.32240000 2.79427000
H 2.43297000 16.94270000 2.26921000
H 5.26778000 17.69080000 2.80189000
O 23.21130000 2.15088000 -0.13443000
H 23.44080000 3.52635000 0.72353900
H 24.61750000 1.18071000 0.41478600
O 11.20310000 20.44610000 21.40780000
H 12.50640000 20.50610000 20.10680000
H 11.98960000 20.65240000 23.13400000
O 3.82796000 11.57470000 2.05829000
H 2.40719000 13.14980000 1.72855000
H 4.01838000 11.61680000 3.84708000
O 6.63513000 4.26072000 19.42300000
H 5.68927000 5.64448000 20.21460000
H 7.29684000 3.52323000 20.99780000
O 11.31010000 18.41160000 13.22720000
H 12.90220000 18.60390000 12.50950000
H 10.56670000 16.94180000 12.26240000
O 1.01522000 15.41470000 13.10430000
H -0.03054500 15.20690000 14.81290000
H 0.53853100 16.92290000 12.36630000
O 16.09970000 3.28169000 2.83983000
H 17.29020000 4.66848000 2.39523000
H 16.89880000 1.60178000 2.00865000
O 7.77160000 0.86181600 23.15210000
H 9.16339000 1.23292000 24.57100000
H 8.53048000 -0.36461800 22.33410000
O 17.28880000 12.43320000 12.39260000
H 15.84630000 11.07420000 12.16830000
H 17.02490000 13.41580000 10.78030000
O 13.52430000 22.66230000 7.09277000
H 14.56160000 22.03070000 5.66752000
H 11.93720000 21.52590000 7.29087000
O 16.46850000 13.18160000 7.25763000
H 14.79510000 12.84360000 6.86051000
H 17.50690000 11.38010000 6.48633000
O 23.31730000 20.96460000 12.81120000
H 22.52190000 22.59020000 13.15770000
H 22.30260000 20.32670000 11.77940000
O 16.02760000 6.00942000 9.78457000
H 16.64630000 7.34677000 10.53620000
H 14.25080000 6.26890000 10.24120000
O 8.72376000 22.41830000 5.76449000
H 7.82692000 20.81230000 6.24580000
H 7.16171000 23.43670000 4.68884000
O 12.98040000 23.01600000 1.61949000
H 11.97160000 23.18760000 3.20060000
H 14.10530000 24.37030000 1.81202000
O 21.85280000 7.63127000 17.37080000
H 21.38260000 7.38020000 19.14970000
H 23.34590000 6.64388000 17.26690000
O 20.82600000 8.85596000 12.66770000
H 20.92520000 7.49865000 14.03210000
H 20.27670000 10.54470000 13.06760000
O 20.76460000 2.63982000 19.73200000
H 20.26500000 4.31814000 18.85730000
H 22.30370000 2.83552000 20.73300000
O 7.85454000 14.64800000 4.30834000
H 6.56192000 15.63530000 5.54416000
H 7.14761000 14.44910000 2.74209000
O 8.64468000 4.49238000 10.78680000
H 9.44794000 4.46852000 12.27450000
H 8.57387000 2.82046000 10.33190000
O 6.19836000 1.43678000 15.15850000
H 5.90680000 2.56432000 16.68990000
H 8.04572000 1.05749000 15.56730000
O 24.56330000 14.98100000 1.25376000
H 23.84960000 13.59620000 0.03879400
H 23.43580000 14.72040000 2.72235000
O 18.46030000 20.68950000 11.97960000
H 18.56030000 20.74730000 10.38480000
H 17.54220000 22.31470000 12.57720000
O 17.48760000 16.47250000 3.38261000
H 17.42430000 15.91290000 1.75713000
H 16.43570000 15.44150000 4.37189000
O 22.27290000 13.34200000 16.30750000
H 22.10350000 11.41930000 16.66810000
H 20.98070000 14.08720000 17.24160000
O 20.35520000 12.24680000 23.49460000
H 19.51580000 12.05510000 22.01170000
H 20.30510000 14.11030000 23.38660000
O 1.70358000 19.64310000 7.58158000
H 1.26741000 20.66840000 5.96541000
H 1.29547000 21.16850000 8.67862000
O 5.38032000 12.58710000 14.59660000
H 4.78474000 11.03150000 13.56930000
H 4.25994000 13.86750000 14.39200000
O 15.11580000 14.94930000 22.60960000
H 15.33460000 16.43150000 21.26750000
H 14.43500000 13.32470000 21.45370000
O 8.95848000 14.16640000 11.37880000
H 8.02425000 13.83270000 13.04380000
H 9.14961000 12.43280000 10.78470000
O 9.64371000 9.96240000 21.72700000
H 9.49037000 8.15445000 21.41070000
H 8.42935000 10.89070000 20.69970000
O 8.96939000 5.06848000 3.50875000
H 8.77668000 6.55345000 1.97467000
H 10.79020000 4.50836000 3.38958000
O 18.06440000 17.00220000 15.40810000
H 17.73990000 15.29360000 14.50120000
H 17.72340000 18.95170000 13.32680000
O 21.90010000 14.22630000 5.68116000
H 22.79690000 14.62410000 7.04063000
H 20.12720000 14.83870000 6.17387000
O 14.24070000 10.22720000 19.33680000
H 13.11700000 9.70374000 17.94270000
H 12.89480000 10.07210000 20.61670000
O 17.06050000 5.30333000 18.73810000
H 15.69500000 4.34575000 18.93490000
H 16.49830000 6.67243000 18.11910000
    
    &END COORD
  &END SUBSYS
  &DFT
    BASIS_SET_FILE_NAME  BASIS_SET
    POTENTIAL_FILE_NAME  GTH_POTENTIALS
    &QS
      EPS_DEFAULT 1.0E-10
    &END QS
    &MGRID
      NGRIDS 4
      CUTOFF 135
      REL_CUTOFF 115
    &END MGRID
    &XC
      &XC_FUNCTIONAL PADE
      &END XC_FUNCTIONAL
    &END XC
    &SCF
      SCF_GUESS ATOMIC
      EPS_SCF 1.0E-7
      MAX_SCF 300
      &DIAGONALIZATION  ON
        ALGORITHM STANDARD
      &END DIAGONALIZATION
      &MIXING  T
        METHOD BROYDEN_MIXING
        ALPHA 0.4
        NBROYDEN 8
      &END MIXING
    &END SCF
  &END DFT
  &PRINT
    &FORCES ON
    &END FORCES
  &END PRINT
&END FORCE_EVAL
