&GLOBAL
  PROJECT H2O_bulk
  RUN_TYPE ENERGY_FORCE
  PRINT_LEVEL LOW
&END GLOBAL
&FORCE_EVAL
  METHOD Quickstep
  &SUBSYS
    &KIND H
      ELEMENT   H
      BASIS_SET DZVP-GTH-PBE
      POTENTIAL GTH-PBE-q1
    &END KIND
    &KIND O
      ELEMENT   O
      BASIS_SET DZVP-GTH-PBE
      POTENTIAL GTH-PBE-q6
    &END KIND
    &CELL
      A     46.937    0.000000000    0.000000000
      B     0.000000000    44.121    0.000000000
      C     0.000000000    0.000000000    45.182
    &END CELL
    &COORD

O 11.68480000 17.93390000 28.06180000
H 10.63100000 19.35840000 28.72060000
H 11.19110000 16.72480000 26.67710000
O 6.50210000 3.54752000 6.84931000
H 7.54224000 4.34683000 8.39550000
H 7.47726000 4.52107000 5.74713000
O -3.39410000 23.64140000 -0.82386800
H -4.75329000 24.23890000 -0.54402000
H -2.56619000 23.38930000 0.85099700
O 8.97302000 6.03395000 26.19730000
H 11.03650000 6.08551000 25.88710000
H 8.17334000 7.72787000 25.31500000
O 17.72290000 18.91320000 10.02430000
H 16.63870000 19.99870000 9.84175000
H 16.90390000 17.23310000 9.67074000
O 15.22410000 1.93345000 21.59570000
H 14.03420000 3.36100000 22.03100000
H 15.84760000 2.44377000 20.07800000
O -4.14351000 1.97013000 4.17884000
H -2.97656000 3.12092000 5.08672000
H -4.16307000 0.22393100 28.35230000
O 19.76560000 13.49360000 22.52270000
H 19.09170000 15.38110000 22.72360000
H 21.29720000 13.07150000 21.36400000
O 2.29511000 -8.19397000 13.28520000
H 1.45651000 -9.32395000 11.96750000
H 3.75245000 -9.46303000 13.68280000
O 15.66940000 14.90130000 5.98462000
H 14.75430000 16.42630000 5.92475000
H 17.49720000 15.09010000 5.27922000
O -0.02499000 29.98740000 27.65840000
H 1.06784000 28.27980000 27.69510000
H 1.29446000 31.23830000 27.77040000
O 2.66791000 24.35520000 7.53200000
H 1.98671000 24.10880000 5.89999000
H 4.10743000 25.94030000 6.84071000
O -8.94918000 7.34172000 0.65235600
H 14.51100000 8.74417000 -0.39224100
H 16.30930000 6.86730000 0.65932800
O 23.87710000 13.44440000 -4.68244000
H 23.80320000 14.08710000 -6.50977000
H 25.14180000 14.21280000 19.74780000
O 21.95270000 23.21110000 17.79050000
H 21.06280000 22.91370000 19.35560000
H 21.48750000 21.78130000 16.58950000
O 10.41600000 12.69980000 -2.72951000
H 12.23770000 12.05740000 -2.12184000
H 10.54920000 14.28400000 -3.58472000
O 21.07450000 -3.04134000 13.88210000
H 19.71410000 -3.53063000 12.54340000
H 22.48490000 19.58030000 13.47510000
O 17.90120000 3.68212000 17.40310000
H 19.56580000 2.58478000 17.53860000
H 17.09660000 2.64078000 16.01220000
O 5.97372000 20.11630000 20.60390000
H 30.25850000 21.05010000 21.60300000
H 4.67361000 21.01980000 19.78340000
O 10.68990000 0.68717500 17.82020000
H 12.38070000 0.32243800 17.31240000
H 9.00368000 -0.53769700 16.82630000
O 11.41720000 -8.82351000 15.19610000
H 13.11110000 -9.10093000 15.13390000
H 10.69410000 -10.24020000 14.56200000
O 11.30920000 17.95590000 -3.32693000
H 10.15750000 19.45190000 -3.35495000
H 12.47290000 18.48170000 -1.61328000
O 8.42441000 0.65682900 -0.73824800
H 9.53157000 0.77153200 -2.07863000
H 7.28745000 1.81189000 -1.11418000
O 15.33590000 11.86100000 20.84220000
H 15.51840000 10.40980000 19.56020000
H 17.05810000 11.94770000 21.62170000
O 22.46370000 2.16778000 11.53060000
H 21.95430000 0.91823300 12.80650000
H 23.49970000 1.45924000 10.17700000
O 4.67852000 31.64620000 0.40719100
H 3.94898000 9.55491000 1.17205000
H 5.04792000 32.24690000 -1.30066000
O 4.13791000 10.80110000 14.13200000
H 5.40434000 10.27500000 12.96550000
H 2.96548000 9.07727000 14.31980000
O -3.78194000 7.03562000 0.60091800
H -2.67798000 6.56024000 1.78615000
H -2.99699000 6.89758000 -1.02812000
O 18.04830000 12.92740000 14.43590000
H 17.59380000 11.21190000 15.31680000
H 16.81260000 13.04570000 12.82610000
O 4.71312000 16.33690000 3.43925000
H 5.35138000 14.72580000 2.74443000
H 4.14480000 17.07810000 1.81057000
O 3.34274000 -3.51624000 11.17430000
H 3.30019000 -5.26958000 11.43360000
H 3.84078000 -3.02487000 9.54267000
O 6.40788000 23.33140000 13.62210000
H 5.19653000 23.87250000 14.83210000
H 5.19667000 22.08940000 12.84880000
O 16.38310000 17.93840000 -6.41443000
H 14.55290000 17.44290000 -6.19534000
H 16.79230000 16.48080000 -7.49551000
O 24.38650000 -4.84118000 -0.01477400
H 22.77040000 -5.55312000 23.10710000
H 24.02600000 -3.49364000 -1.24815000
O 10.48640000 6.06274000 17.30010000
H 9.86620000 4.29457000 16.63680000
H 9.64174000 7.13855000 18.69760000
O 14.19750000 22.31960000 9.25343000
H 12.49930000 22.18630000 8.77133000
H 14.44460000 23.87140000 8.60905000
O 12.71190000 10.46620000 4.69442000
H 13.91050000 11.69870000 4.90708000
H 13.15430000 9.43558000 3.41058000
O 8.94828000 13.31660000 2.39123000
H 8.93199000 13.63980000 0.46234400
H 10.45270000 12.29990000 2.77960000
O 21.04760000 20.67400000 6.13055000
H 20.43580000 19.65710000 4.84654000
H 20.18970000 20.12100000 7.54755000
O 11.35560000 8.43339000 9.15741000
H 11.85010000 6.53376000 8.70407000
H 11.42950000 9.60749000 7.44771000
O 15.76650000 11.33540000 10.22820000
H 14.27160000 9.97531000 10.36840000
H 15.86480000 12.44920000 8.69369000
O 23.33830000 31.84050000 19.43280000
H 24.59700000 31.57280000 20.70600000
H 23.28090000 33.88530000 19.23540000
O 3.24964000 10.64250000 5.45379000
H 4.52862000 10.88090000 6.73949000
H 2.23767000 12.02140000 5.76180000
O 15.00840000 27.36360000 7.10866000
H 15.83940000 27.79690000 8.55327000
H 16.32740000 27.10190000 5.80348000
O 4.46753000 15.40590000 20.43530000
H 4.95686000 17.14460000 20.46880000
H 6.24657000 14.69350000 19.90810000
O 3.21799000 23.99000000 17.61630000
H 3.11195000 25.38010000 19.01300000
H 1.49639000 23.07340000 17.47030000
O 0.87308600 16.23410000 6.57359000
H 2.11258000 16.03660000 5.28418000
H 0.40423700 18.17440000 6.69889000
O -7.80668000 8.47885000 16.76240000
H 13.99050000 8.09875000 16.33510000
H -7.10850000 7.06036000 17.20580000
O 30.13910000 8.96453000 10.19990000
H 32.02870000 8.54013000 10.21000000
H 29.09480000 7.61620000 9.74835000
O 10.33950000 14.38900000 9.27641000
H 9.04564000 13.25590000 8.16493000
H 10.58560000 15.79050000 8.20080000
O 20.71100000 11.16500000 6.31715000
H 21.01080000 9.49853000 5.97502000
H -3.76940000 10.94700000 7.93002000
O 20.01540000 15.71510000 3.84331000
H 21.38960000 15.32030000 5.28874000
H 20.47930000 14.22390000 2.94939000
O 18.56560000 5.32985000 10.71380000
H 20.00040000 4.07587000 10.78340000
H 19.35970000 7.00861000 10.75120000
O 9.10920000 22.53430000 28.03860000
H 8.84912000 24.28880000 29.08580000
H 9.75215000 23.10640000 26.62460000
O -22.03410000 6.06406000 14.78600000
H -22.70680000 4.61296000 13.32360000
H -22.52010000 5.28889000 16.24020000
O 15.43950000 -0.72159400 15.14490000
H 15.33440000 -0.73848600 13.40400000
H 16.00640000 -2.63353000 15.57280000
O 18.92850000 -5.38242000 21.77910000
H 17.40890000 -4.13136000 22.76230000
H 18.15100000 -5.30441000 19.84580000
O 30.08340000 9.64087000 19.47380000
H 29.12110000 10.53260000 18.00060000
H 31.81110000 11.12350000 19.41830000
O 26.56020000 22.70640000 26.11280000
H 25.71960000 -2.33702000 25.95460000
H 28.19000000 22.31650000 26.78010000
O 26.47660000 26.77200000 22.30970000
H 3.31028000 28.32030000 23.21020000
H 26.54120000 25.48900000 23.77740000
O -8.46287000 20.12940000 1.28748000
H -9.43193000 19.70210000 2.79222000
H -9.08026000 21.84980000 0.75881800
O 9.07524000 3.95834000 11.22870000
H 8.08338000 2.55353000 12.02080000
H 9.39205000 5.47659000 12.17030000
O 21.20560000 9.82745000 11.43090000
H 20.10660000 11.04670000 12.34470000
H 22.48670000 9.35803000 12.36950000
O 10.42100000 -3.75036000 11.46170000
H 8.75022000 20.41170000 12.08940000
H 10.36540000 -5.47227000 12.15580000
    
    &END COORD
  &END SUBSYS
  &DFT
    BASIS_SET_FILE_NAME  BASIS_SET
    POTENTIAL_FILE_NAME  GTH_POTENTIALS
    &QS
      EPS_DEFAULT 1.0E-10
    &END QS
    &MGRID
      NGRIDS 4
      CUTOFF 135
      REL_CUTOFF 115
    &END MGRID
    &XC
      &XC_FUNCTIONAL PADE
      &END XC_FUNCTIONAL
    &END XC
    &SCF
      SCF_GUESS ATOMIC
      EPS_SCF 1.0E-7
      MAX_SCF 300
      &DIAGONALIZATION  ON
        ALGORITHM STANDARD
      &END DIAGONALIZATION
      &MIXING  T
        METHOD BROYDEN_MIXING
        ALPHA 0.4
        NBROYDEN 8
      &END MIXING
    &END SCF
  &END DFT
  &PRINT
    &FORCES ON
    &END FORCES
  &END PRINT
&END FORCE_EVAL
