&GLOBAL
  PROJECT H2O_bulk
  RUN_TYPE ENERGY_FORCE
  PRINT_LEVEL LOW
&END GLOBAL
&FORCE_EVAL
  METHOD Quickstep
  &SUBSYS
    &KIND H
      ELEMENT   H
      BASIS_SET DZVP-GTH-PBE
      POTENTIAL GTH-PBE-q1
    &END KIND
    &KIND O
      ELEMENT   O
      BASIS_SET DZVP-GTH-PBE
      POTENTIAL GTH-PBE-q6
    &END KIND
    &CELL
      A     46.937    0.000000000    0.000000000
      B     0.000000000    44.121    0.000000000
      C     0.000000000    0.000000000    45.182
    &END CELL
    &COORD

O 9.65105000 4.07602000 9.07094000
H 8.68605000 5.27331000 9.94618000
H 9.24088000 2.54633000 9.95807000
O 14.29230000 21.77230000 9.08199000
H 12.84580000 21.55250000 10.10360000
H 13.77920000 21.29260000 7.36110000
O 19.98280000 0.68179400 2.56367000
H 19.03610000 23.56290000 1.69293000
H 21.41820000 0.60573200 1.92895000
O 11.30570000 22.82950000 17.22380000
H 12.11640000 21.12600000 17.76540000
H 10.78960000 23.62180000 18.87970000
O 1.93759000 5.20408000 2.93281000
H 2.51333000 6.13900000 4.19472000
H 2.79078000 5.76698000 1.51419000
O 17.69350000 5.08048000 23.42320000
H 18.15710000 6.57410000 -0.05672800
H 17.72230000 3.82621000 0.41206900
O 23.02410000 -0.13669900 9.00446000
H 20.68220000 22.88820000 7.71415000
H 23.24920000 22.99810000 10.31610000
O 14.94800000 17.05330000 2.69107000
H 14.17720000 16.15250000 1.23436000
H 16.18600000 18.06860000 2.08403000
O 12.48580000 16.66320000 21.80020000
H 14.40480000 17.92110000 20.12400000
H 12.94580000 15.14920000 20.77010000
O 11.26600000 18.74580000 12.49620000
H 11.23320000 16.99750000 12.10410000
H 9.38353000 19.18930000 12.49220000
O 0.57595900 6.99723000 21.37580000
H 23.25880000 7.34019000 21.15880000
H 0.88248700 7.97888000 22.79960000
O 8.45477000 10.63010000 3.83759000
H 10.35470000 10.17190000 4.04923000
H 8.53708000 11.97550000 3.19913000
O 4.58825000 9.65877000 23.45990000
H 3.74703000 10.55560000 0.55746200
H 6.52716000 9.93723000 -0.17421500
O 10.49700000 7.30324000 13.27620000
H 9.21079000 6.94570000 14.18860000
H 11.71110000 5.78797000 13.85070000
O 13.43250000 0.93107400 0.18097500
H 13.48940000 -0.32925200 1.43198000
H 14.10270000 0.02778600 23.09730000
O 11.79590000 11.95510000 20.10960000
H 11.89600000 10.40420000 21.14240000
H 10.01010000 12.42810000 19.58180000
O 19.83720000 9.23689000 1.98106000
H 19.34330000 8.83661000 3.59322000
H 21.84010000 9.36479000 1.81742000
O 1.66891000 21.84480000 11.87020000
H 0.52933300 20.10380000 11.90290000
H 1.61518000 23.22820000 15.99960000
O 21.95540000 5.04512000 9.50487000
H 22.30270000 3.43446000 10.17130000
H 20.12890000 4.98054000 8.13915000
O 13.53420000 3.79908000 15.35710000
H 13.26690000 1.48723000 16.53990000
H 14.50920000 3.14575000 13.98260000
O 13.49280000 7.45313000 5.27164000
H 12.11760000 6.04764000 5.78020000
H 13.28790000 8.83595000 6.36835000
O 18.62970000 5.45670000 5.32770000
H 18.84830000 3.60692000 4.73060000
H 17.18630000 5.58433000 6.23312000
O 1.61003000 15.65150000 10.26980000
H 2.48192000 15.98640000 8.60094000
H 2.84394000 14.74320000 11.21050000
O 9.32523000 0.16316100 21.91730000
H 8.70472000 22.94950000 22.39040000
H 10.38620000 0.78832600 23.23740000
O 12.43300000 21.42240000 4.42475000
H 11.92000000 19.70880000 3.96956000
H 11.18210000 22.39590000 4.15832000
O 6.47393000 8.90161000 15.70030000
H 5.42549000 10.56750000 16.61840000
H 5.10284000 7.67810000 15.58110000
O 17.72740000 18.28420000 11.03640000
H 17.34130000 16.53370000 10.18350000
H 16.55970000 19.57220000 10.40910000
O 7.54819000 23.38150000 10.13420000
H 6.23394000 0.26192900 10.59120000
H 5.50170000 21.85850000 8.67419000
O 14.09830000 18.43570000 17.43620000
H 15.41250000 18.12800000 16.44850000
H 12.65730000 18.19390000 16.17810000
O 22.02890000 1.00633000 21.06980000
H 23.00270000 2.74457000 20.69500000
H 23.16720000 -0.38438100 20.86910000
O 19.40410000 20.25960000 1.23972000
H 21.02220000 19.90660000 1.18403000
H 18.84200000 20.44080000 23.77240000
O 16.47870000 1.92384000 11.53950000
H 15.77890000 1.15058000 10.00290000
H 18.31610000 1.77489000 11.24960000
O 19.70310000 20.90990000 6.49200000
H 19.04390000 20.22130000 5.06521000
H 18.83910000 19.24270000 8.47929000
O 5.69518000 12.15370000 11.24360000
H 5.64312000 12.12940000 13.15630000
H 4.79601000 10.55830000 10.60990000
O 22.97040000 16.81330000 19.25210000
H 22.22660000 17.92220000 18.31280000
H 23.43050000 15.52940000 17.85730000
O 20.52560000 7.76703000 13.45290000
H 21.28450000 6.47768000 12.46090000
H 19.78850000 7.11091000 14.98990000
O 19.19760000 19.24820000 15.73720000
H 19.03700000 18.29650000 14.12660000
H 19.81380000 21.28450000 14.82790000
O 23.36580000 17.19330000 -0.00380800
H 23.17180000 16.84520000 22.47390000
H 0.60037900 17.37010000 0.06991400
O 6.68818000 13.33960000 19.43760000
H 5.90569000 15.02290000 19.96560000
H 6.36824000 12.31100000 20.64030000
O 12.16420000 7.75266000 -0.02962700
H 12.47580000 7.42319000 1.64098000
H 14.23480000 6.82863000 23.22960000
O 1.49816000 8.17604000 15.85200000
H 1.61273000 7.60307000 17.64630000
H -0.21734500 8.46084000 15.28190000
O 0.65985500 11.55010000 1.85909000
H 0.15413400 12.75940000 0.44023500
H -0.22592900 11.93730000 3.17531000
O 1.28635000 22.93120000 17.46880000
H 2.50259000 -0.03856500 18.28920000
H 2.17850000 21.19360000 17.95640000
O 2.55692000 0.25439400 5.15340000
H 2.26370000 0.43965000 7.21125000
H 2.38738000 1.97042000 4.33494000
O 4.82422000 2.76200000 19.04410000
H 5.81392000 1.55711000 20.23920000
H 4.80332000 4.34780000 19.95200000
O 6.57359000 21.09000000 15.35790000
H 6.51592000 22.21430000 13.57380000
H 8.41431000 21.06210000 15.87080000
O 17.98000000 13.50830000 8.02704000
H 16.68080000 13.78250000 6.84887000
H 18.84870000 12.02410000 7.41979000
O 17.18700000 22.43810000 21.18960000
H 18.42680000 23.72490000 21.10470000
H 16.76430000 21.67730000 19.49960000
O 18.75540000 5.10069000 18.19450000
H 16.95800000 4.76711000 18.21150000
H 19.35960000 5.49075000 19.94320000
O 3.31883000 16.68490000 5.13139000
H 4.81774000 15.86510000 4.45271000
H 3.26006000 18.18500000 4.01953000
O 7.42696000 23.81420000 3.71161000
H 7.42058000 1.32817000 1.43930000
H 5.88542000 0.21281300 4.79322000
O 5.52099000 6.87946000 7.30313000
H 6.78993000 5.49262000 7.89481000
H 6.36304000 7.26754000 5.71174000
O 20.80070000 0.43895500 15.55220000
H 20.14630000 1.71549000 16.32270000
H 22.61250000 0.12218600 16.86730000
O 4.50369000 3.26997000 13.36070000
H 4.53592000 3.37362000 15.17610000
H 4.67293000 4.94560000 12.70700000
O 13.58270000 10.39500000 9.97676000
H 12.50490000 9.77695000 11.29150000
H 14.86460000 11.63980000 10.82390000
O 7.38388000 19.73030000 23.10080000
H 6.89144000 18.60600000 21.47430000
H 9.16586000 19.19200000 23.24070000
O 16.72440000 11.75080000 13.94990000
H 18.47460000 11.27230000 13.75920000
H 15.87740000 10.22380000 14.64310000
O 3.10087000 20.64680000 1.94663000
H 4.91499000 20.85490000 1.88173000
H 2.48065000 21.72610000 3.38416000
O 23.23390000 11.08330000 7.36115000
H 24.39060000 9.49178000 7.24806000
H -0.49734600 12.23060000 8.66388000
O 8.73784000 16.42010000 3.71257000
H 8.54948000 17.56250000 2.08251000
H 10.78890000 15.42630000 3.79005000
O 7.36801000 4.85342000 0.90690100
H 8.98953000 4.81534000 0.68490500
H 7.18569000 3.08490000 24.71090000
O 4.07401000 18.35370000 18.92300000
H 4.32297000 17.33480000 17.64610000
H 2.42493000 17.66340000 19.64030000
O 23.60590000 13.83040000 14.59750000
H 23.25870000 14.01150000 12.88760000
H 0.42997500 12.58960000 14.94610000
O 10.99470000 14.69990000 8.34146000
H 11.96650000 13.33750000 9.56914000
H 10.25170000 13.62360000 7.50050000
    
    &END COORD
  &END SUBSYS
  &DFT
    BASIS_SET_FILE_NAME  BASIS_SET
    POTENTIAL_FILE_NAME  GTH_POTENTIALS
    &QS
      EPS_DEFAULT 1.0E-10
    &END QS
    &MGRID
      NGRIDS 4
      CUTOFF 135
      REL_CUTOFF 115
    &END MGRID
    &XC
      &XC_FUNCTIONAL PADE
      &END XC_FUNCTIONAL
    &END XC
    &SCF
      SCF_GUESS ATOMIC
      EPS_SCF 1.0E-7
      MAX_SCF 300
      &DIAGONALIZATION  ON
        ALGORITHM STANDARD
      &END DIAGONALIZATION
      &MIXING  T
        METHOD BROYDEN_MIXING
        ALPHA 0.4
        NBROYDEN 8
      &END MIXING
    &END SCF
  &END DFT
  &PRINT
    &FORCES ON
    &END FORCES
  &END PRINT
&END FORCE_EVAL
