&GLOBAL
  PROJECT H2O_bulk
  RUN_TYPE ENERGY_FORCE
  PRINT_LEVEL LOW
&END GLOBAL
&FORCE_EVAL
  METHOD Quickstep
  &SUBSYS
    &KIND H
      ELEMENT   H
      BASIS_SET DZVP-GTH-PBE
      POTENTIAL GTH-PBE-q1
    &END KIND
    &KIND O
      ELEMENT   O
      BASIS_SET DZVP-GTH-PBE
      POTENTIAL GTH-PBE-q6
    &END KIND
    &CELL
      A     46.937    0.000000000    0.000000000
      B     0.000000000    44.121    0.000000000
      C     0.000000000    0.000000000    45.182
    &END CELL
    &COORD

O 11.62870000 14.33320000 25.36080000
H 12.56300000 16.08220000 24.71060000
H 9.78772000 15.27220000 25.19640000
O 10.74060000 3.32014000 4.59488000
H 10.45970000 3.84095000 6.31578000
H 9.96114000 3.90271000 2.81553000
O -1.09994000 20.70820000 0.17918000
H -1.83065000 19.35710000 1.19418000
H -1.62666000 22.59930000 0.60192700
O 9.00956000 6.34097000 23.84220000
H 10.86010000 7.00802000 23.84470000
H 7.72300000 7.58573000 23.13570000
O 16.65240000 17.10260000 12.31490000
H 15.86420000 18.77050000 12.67850000
H 15.08080000 15.94030000 12.39140000
O 15.26020000 4.22844000 23.69340000
H 15.11200000 5.15314000 25.38100000
H 16.24640000 5.12505000 22.49610000
O -1.29700000 2.80477000 2.06756000
H 0.52178400 3.00341000 2.17476000
H -2.12773000 2.77210000 27.32000000
O 16.93310000 13.57360000 24.40890000
H 16.03800000 14.95730000 23.56880000
H 18.15720000 12.73580000 23.59860000
O 3.38028000 -3.97294000 12.63830000
H 1.44993000 -4.51740000 12.41900000
H 4.84797000 -4.28722000 11.56950000
O 14.53250000 14.42930000 7.19061000
H 14.61830000 13.93670000 5.26662000
H 16.32880000 14.22590000 7.51738000
O 3.69149000 27.25920000 25.40140000
H 4.26202000 26.82550000 23.69240000
H 3.22002000 29.08940000 25.71860000
O 6.37321000 23.57870000 5.68385000
H 5.47259000 24.91050000 4.49404000
H 8.23625000 24.46820000 5.76345000
O -8.04193000 7.18620000 4.44259000
H 14.64100000 8.71232000 3.83245000
H 17.17170000 7.59391000 4.09815000
O 20.31080000 13.66350000 -4.47524000
H 21.19170000 12.15430000 -5.22577000
H 21.87440000 13.91330000 20.14840000
O 22.71720000 21.67020000 18.68380000
H 22.06980000 21.33810000 20.53200000
H 21.65270000 20.35700000 17.36100000
O 8.88229000 13.08200000 -3.90067000
H 10.10720000 12.98130000 -5.05331000
H 8.94232000 14.39000000 -3.02144000
O 20.91390000 -5.91088000 15.62560000
H 19.07640000 -5.60098000 14.98620000
H 20.62860000 16.08780000 16.97760000
O 20.99700000 5.89934000 15.95100000
H 20.11300000 5.79087000 14.34930000
H 21.99720000 4.39893000 16.52510000
O 3.94094000 20.11280000 17.64010000
H 25.54800000 20.54170000 18.25220000
H 3.68831000 19.98780000 15.81100000
O 14.39300000 1.65651000 17.39190000
H 15.02530000 0.11458400 16.86070000
H 12.75450000 1.45045000 18.38400000
O 7.70478000 -6.04573000 11.05830000
H 7.93253000 -7.66914000 12.52590000
H 6.70449000 -7.02273000 9.77031000
O 8.03902000 17.97020000 -3.39236000
H 6.23872000 18.43450000 -4.27084000
H 8.36018000 18.24370000 -1.65933000
O 10.76570000 1.93540000 -1.87579000
H 12.37910000 2.65072000 -1.20176000
H 9.88595000 3.65918000 -1.99353000
O 13.04500000 9.68140000 23.54120000
H 13.55720000 9.39373000 21.86020000
H 12.59100000 11.75190000 23.80130000
O 21.23510000 0.97613800 7.47688000
H 23.00190000 -0.27498900 7.46148000
H 19.50030000 0.26133400 7.91069000
O 5.48017000 33.13470000 -1.84678000
H 3.82976000 10.11160000 -1.64933000
H 6.41000000 34.63020000 -2.37688000
O 1.94282000 8.74114000 10.73490000
H 1.98065000 9.88145000 12.03200000
H 1.82722000 7.32048000 11.86290000
O -3.10712000 7.62053000 5.57009000
H -2.88562000 7.03198000 7.18880000
H -1.35096000 7.71690000 5.18845000
O 13.09570000 13.53870000 15.19260000
H 13.99580000 12.11330000 16.29470000
H 12.60520000 12.50730000 13.54190000
O 4.94318000 18.77250000 7.06912000
H 5.09052000 20.31880000 6.06790000
H 5.54263000 17.34730000 5.94522000
O 2.81424000 0.75960200 9.82189000
H 3.26294000 -0.57822600 11.17990000
H 3.87676000 0.52891900 7.91362000
O 9.18138000 23.10250000 12.06280000
H 8.37788000 23.64200000 14.02640000
H 8.53905000 21.30200000 11.48890000
O 11.94470000 18.89700000 -7.02322000
H 10.52740000 19.01900000 -5.88088000
H 12.52870000 17.22230000 -7.13255000
O 20.60240000 -6.45770000 3.17984000
H 19.55510000 -7.56616000 25.70770000
H 21.54990000 -7.38751000 4.45270000
O 16.84960000 6.60144000 18.89930000
H 15.86650000 4.93054000 18.19270000
H 18.48590000 6.74122000 17.93900000
O 14.53550000 22.17280000 11.78380000
H 12.95310000 22.44880000 12.70560000
H 14.90990000 23.81270000 10.92030000
O 7.01528000 10.62390000 5.37574000
H 7.06494000 10.44090000 7.17697000
H 8.84986000 11.60900000 4.73577000
O 6.65837000 15.63070000 3.01472000
H 5.65171000 16.82310000 1.59793000
H 5.51421000 13.91820000 3.29009000
O 19.78320000 19.13530000 8.00920000
H 18.72160000 18.59660000 6.70593000
H 18.50060000 19.04470000 9.48136000
O 14.18150000 6.07802000 9.55058000
H 12.45210000 5.28758000 9.31485000
H 14.89300000 5.97294000 7.90614000
O 11.82670000 10.74520000 10.89570000
H 12.75510000 9.30843000 10.43950000
H 12.29180000 11.74910000 9.15490000
O 23.29080000 32.22420000 22.90910000
H 22.81320000 30.76840000 24.19080000
H 23.21510000 31.57620000 21.16450000
O 1.26572000 13.11410000 4.16369000
H 1.48392000 11.42820000 3.72436000
H 1.42851000 13.51520000 6.08428000
O 16.35640000 23.96120000 5.98878000
H 16.48660000 23.19310000 4.18072000
H 14.70030000 24.25100000 5.77210000
O 0.96504600 14.26770000 22.32660000
H 1.06744000 15.99710000 21.90240000
H 0.53673500 14.10500000 23.93790000
O 7.22449000 24.07280000 16.78900000
H 7.61362000 25.38550000 17.83810000
H 5.84989000 22.96470000 17.17250000
O 0.43360700 16.72640000 8.45767000
H 1.58635000 17.94810000 7.86027000
H -1.31629000 17.65020000 8.34227000
O -8.01431000 11.48300000 18.72880000
H 16.00480000 9.44850000 18.51500000
H -6.33562000 12.61720000 18.96830000
O 25.79520000 7.89365000 5.08979000
H 27.59630000 8.39441000 4.93122000
H 25.68950000 7.93149000 7.14590000
O 6.24332000 11.34360000 10.64500000
H 5.84192000 10.95360000 12.84100000
H 8.12170000 11.42220000 11.03730000
O 23.06720000 13.52550000 12.25210000
H 23.57740000 15.10990000 10.75280000
H -1.56749000 14.67660000 13.61380000
O 19.50340000 12.58900000 7.80699000
H 20.83030000 12.77160000 8.99954000
H 19.97790000 11.00070000 7.00125000
O 19.47740000 5.83049000 10.78270000
H 20.64160000 4.44933000 9.76413000
H 17.59590000 4.86333000 10.74160000
O 9.45992000 20.54740000 24.66190000
H 9.69057000 20.30220000 26.48530000
H 9.99664000 22.23030000 24.15200000
O -19.08090000 4.43046000 13.14580000
H -19.31690000 3.09649000 11.98620000
H -17.85600000 4.07543000 14.33060000
O 24.78860000 3.18357000 17.40240000
H 26.19140000 3.27406000 15.73810000
H 23.50450000 1.62466000 17.67330000
O 15.21840000 -5.83170000 21.29150000
H 16.52830000 -4.64838000 21.59880000
H 14.45850000 -5.06731000 19.87800000
O 28.77530000 11.28210000 15.66800000
H 28.19420000 10.38530000 17.15820000
H 29.73460000 12.69220000 16.61590000
O 27.47210000 19.52830000 24.41780000
H 26.09280000 -2.55294000 24.76420000
H 29.24010000 20.49000000 24.33070000
O 29.29480000 27.73770000 20.09220000
H 6.11748000 29.77950000 19.99410000
H 27.44920000 27.70350000 19.77480000
O -7.11360000 22.43160000 0.64202300
H -8.98914000 22.40090000 0.06900900
H -6.73201000 24.28840000 0.42582900
O 9.45136000 4.13293000 9.38969000
H 9.13941000 2.74481000 10.52720000
H 8.74968000 5.48926000 10.24920000
O 23.70660000 10.47320000 16.98720000
H 22.71200000 9.20411000 16.30720000
H 23.94950000 11.63590000 15.51830000
O 11.26100000 -4.21517000 6.36418000
H 10.60960000 17.82970000 7.85021000
H 12.59470000 -3.29688000 6.91221000
    
    &END COORD
  &END SUBSYS
  &DFT
    BASIS_SET_FILE_NAME  BASIS_SET
    POTENTIAL_FILE_NAME  GTH_POTENTIALS
    &QS
      EPS_DEFAULT 1.0E-10
    &END QS
    &MGRID
      NGRIDS 4
      CUTOFF 135
      REL_CUTOFF 115
    &END MGRID
    &XC
      &XC_FUNCTIONAL PADE
      &END XC_FUNCTIONAL
    &END XC
    &SCF
      SCF_GUESS ATOMIC
      EPS_SCF 1.0E-7
      MAX_SCF 300
      &DIAGONALIZATION  ON
        ALGORITHM STANDARD
      &END DIAGONALIZATION
      &MIXING  T
        METHOD BROYDEN_MIXING
        ALPHA 0.4
        NBROYDEN 8
      &END MIXING
    &END SCF
  &END DFT
  &PRINT
    &FORCES ON
    &END FORCES
  &END PRINT
&END FORCE_EVAL
