&GLOBAL
  PROJECT H2O_bulk
  RUN_TYPE ENERGY_FORCE
  PRINT_LEVEL LOW
&END GLOBAL
&FORCE_EVAL
  METHOD Quickstep
  &SUBSYS
    &KIND H
      ELEMENT   H
      BASIS_SET DZVP-GTH-PBE
      POTENTIAL GTH-PBE-q1
    &END KIND
    &KIND O
      ELEMENT   O
      BASIS_SET DZVP-GTH-PBE
      POTENTIAL GTH-PBE-q6
    &END KIND
    &CELL
      A     46.937    0.000000000    0.000000000
      B     0.000000000    44.121    0.000000000
      C     0.000000000    0.000000000    45.182
    &END CELL
    &COORD

O 10.83230000 0.98890400 23.62650000
H 11.88970000 -0.13081200 23.81660000
H 10.82420000 1.75056000 1.45494000
O 1.53089000 2.96885000 10.99620000
H 0.33873100 4.41621000 11.38440000
H 1.88463000 3.10893000 9.37677000
O 14.34690000 23.39770000 17.32170000
H 14.06900000 22.74540000 15.49940000
H 15.13550000 22.08850000 18.14870000
O 22.67140000 14.44760000 0.35879400
H 22.91140000 12.62110000 1.03467000
H 0.04489600 14.43300000 22.96090000
O 15.30450000 12.46100000 4.03958000
H 16.45100000 11.31620000 3.11914000
H 16.54940000 13.80720000 4.66258000
O 22.99440000 18.72740000 3.43035000
H 22.85770000 17.43900000 2.17323000
H 21.53770000 19.84490000 3.27758000
O 17.65520000 14.98550000 23.06290000
H 16.65220000 15.50200000 0.50789000
H 19.24280000 14.76710000 23.38180000
O 23.74540000 10.32900000 9.47312000
H 23.03860000 11.91520000 10.04080000
H 1.06423000 10.14820000 10.51540000
O 8.22989000 8.97326000 8.67252000
H 9.75720000 8.86366000 9.50904000
H 7.36496000 10.06530000 9.61604000
O 6.84044000 5.21559000 23.12750000
H 6.58526000 4.86758000 1.16900000
H 5.08839000 5.92456000 22.41990000
O 5.19220000 9.18576000 16.39140000
H 5.24285000 7.22752000 15.64250000
H 6.71181000 9.26574000 16.82090000
O 21.97910000 15.21310000 10.84140000
H 21.18700000 15.00130000 9.36199000
H 20.80230000 14.82490000 11.75980000
O 8.00628000 21.60380000 2.49307000
H 9.15981000 22.75740000 1.73607000
H 5.19587000 22.07230000 1.66691000
O 0.40734600 21.47620000 20.78120000
H 0.32310900 22.82950000 19.60250000
H 0.89412600 19.96790000 19.69020000
O 8.51314000 0.59680600 18.62100000
H 9.31530000 1.66425000 19.82640000
H 9.75086000 24.16390000 17.47410000
O 18.00700000 1.31616000 8.88648000
H 19.74070000 0.53524900 9.28362000
H 18.18330000 3.14816000 8.23743000
O 2.22263000 12.63460000 20.83730000
H 1.46197000 12.58300000 19.26840000
H 4.04220000 13.10690000 20.66660000
O 16.93280000 2.94635000 22.04820000
H 15.34000000 2.50138000 22.85730000
H 17.18580000 2.29687000 20.21750000
O 7.18756000 8.20788000 3.86733000
H 6.98799000 8.62206000 5.80910000
H 5.72487000 9.16846000 3.17985000
O 4.81795000 3.54354000 15.25480000
H 5.55809000 1.59170000 12.91660000
H 5.71166000 2.73120000 16.58520000
O 17.57660000 14.63240000 13.77770000
H 16.94840000 13.60960000 15.29610000
H 15.96720000 15.43790000 12.91490000
O 23.34380000 11.20910000 15.91790000
H 21.83740000 11.28670000 16.80470000
H 23.93650000 9.77710000 16.11060000
O 5.34372000 21.70180000 14.13450000
H 6.34707000 21.50750000 15.63880000
H 3.53699000 21.25390000 14.66710000
O 3.92248000 3.67606000 5.07936000
H 4.82488000 4.89264000 4.01508000
H 5.05439000 2.82949000 6.04171000
O 13.66540000 0.17396000 12.74800000
H 15.20770000 0.31668500 12.10320000
H 12.75860000 -0.01209500 11.41870000
O 0.85199900 2.79455000 19.06080000
H -0.56612000 4.08288000 20.00180000
H 2.46241000 3.39304000 19.23430000
O 0.71330400 11.00150000 4.51426000
H 0.96737600 10.50390000 6.25371000
H 1.60782000 12.72060000 4.11720000
O 12.37470000 11.49470000 8.78287000
H 13.01090000 11.94790000 7.18526000
H 12.79610000 13.08670000 10.06750000
O 13.62310000 5.55600000 15.06690000
H 13.65390000 6.26862000 13.39440000
H 12.58080000 4.05464000 14.99410000
O 22.63030000 5.65024000 14.31260000
H 23.85780000 5.51215000 15.50100000
H 21.33400000 4.82127000 15.34360000
O 11.63090000 7.97058000 22.99740000
H 9.71944000 8.09502000 23.09810000
H 12.08090000 6.28317000 23.03770000
O 18.31130000 5.98652000 17.46520000
H 17.73920000 5.48801000 18.82140000
H 16.88010000 5.89243000 16.31530000
O 17.92660000 11.57180000 18.27180000
H 18.04130000 11.15930000 20.07320000
H 18.26520000 10.05220000 17.68560000
O 6.75410000 20.16020000 20.60420000
H 7.34319000 21.93550000 20.83610000
H 4.87375000 20.09810000 20.61270000
O 5.55863000 13.16680000 2.64773000
H 6.61474000 12.81820000 1.11536000
H 6.68199000 14.08970000 3.57175000
O 8.77335000 16.92890000 4.53785000
H 9.46297000 18.13680000 3.48289000
H 8.67788000 17.81210000 6.42198000
O 18.57200000 15.67960000 6.45678000
H 17.16600000 16.57290000 6.78249000
H 19.63400000 17.24600000 5.91326000
O 1.10509000 19.22460000 8.20053000
H 0.45376000 19.23190000 6.31851000
H 0.62597100 17.40200000 9.23247000
O 17.49140000 7.76025000 3.16973000
H 18.02220000 7.72289000 4.89830000
H 17.05940000 6.16898000 2.90163000
O 22.36900000 22.88510000 11.07620000
H -1.51148000 21.36210000 10.19000000
H 23.67140000 0.20739800 10.47430000
O 14.49000000 17.53280000 18.42680000
H 12.72630000 18.16290000 18.74550000
H 14.77440000 16.47880000 19.62200000
O 12.42870000 16.25220000 11.76270000
H 12.33000000 17.73370000 10.46000000
H 10.61420000 15.95510000 12.13900000
O 5.73118000 15.29160000 18.13430000
H 6.37906000 16.85110000 19.33100000
H 7.40111000 14.64050000 17.65380000
O 5.07647000 11.72420000 11.85680000
H 5.87521000 13.34130000 12.27230000
H 4.86206000 10.61030000 13.38530000
O 18.69890000 7.18015000 9.16775000
H 17.73050000 7.00344000 10.56980000
H 20.37000000 7.98291000 9.52736000
O 10.69100000 14.36840000 16.61680000
H 11.99570000 15.48420000 15.81650000
H 11.85500000 12.92420000 16.76850000
O 11.46410000 18.08180000 22.89940000
H 9.86952000 19.08060000 23.48260000
H 11.31900000 16.09300000 -0.85760200
O 3.05299000 21.67970000 1.36435000
H 1.67662000 20.59480000 1.99189000
H 2.75413000 21.91310000 23.36790000
O 3.46094000 7.52826000 21.06400000
H 2.70500000 9.00581000 21.91550000
H 4.77780000 8.48173000 20.07820000
O 22.54680000 7.48310000 1.52024000
H 23.26140000 8.54593000 2.72088000
H 20.76450000 7.74813000 1.71634000
O 11.18190000 21.35970000 9.51780000
H 12.14670000 21.77010000 7.23218000
H 9.53704000 22.00960000 9.54052000
O 10.36160000 3.90870000 9.33494000
H 9.33638000 5.22224000 9.89181000
H 9.01727000 2.76884000 8.46148000
O 14.75460000 21.10090000 1.31579000
H 14.40360000 19.44430000 0.55715200
H 16.54430000 21.21600000 1.30880000
O 20.12790000 19.61730000 14.83080000
H 19.40320000 20.99900000 13.77590000
H 16.76040000 17.50640000 14.96020000
O 22.58570000 1.83540000 2.34274000
H 0.28921100 1.12832000 2.50747000
H 23.16470000 4.03806000 1.86984000
O 10.71990000 12.99610000 0.17817700
H 10.82090000 11.44250000 22.74270000
H 12.19740000 12.52760000 1.38193000
O 11.95600000 4.61204000 3.77456000
H 12.42040000 5.29374000 5.32567000
H 10.45540000 5.36658000 3.27358000
O 15.14630000 9.22904000 11.84850000
H 14.26860000 10.16350000 10.52820000
H 15.93810000 10.23570000 13.09990000
O 15.95480000 20.52040000 6.16514000
H 16.57460000 19.93100000 4.48093000
H 16.60310000 22.10910000 6.80495000
O 6.85250000 23.37440000 7.08382000
H 6.99481000 23.98020000 5.22674000
H 6.77360000 21.59120000 6.79839000
O 0.53745500 18.38100000 16.69950000
H 1.48181000 16.66400000 17.23600000
H 22.61400000 17.93830000 16.83460000
O 19.61720000 21.28900000 0.36114600
H 20.68850000 20.61180000 23.00810000
H 20.30250000 23.02340000 0.35906500
O 5.80045000 16.76520000 10.05880000
H 4.14205000 17.07710000 9.18029000
H 6.01472000 18.43180000 11.08050000
O 10.94820000 9.16363000 17.49840000
H 11.88650000 8.36832000 19.38940000
H 12.50510000 8.08588000 16.17910000
    
    &END COORD
  &END SUBSYS
  &DFT
    BASIS_SET_FILE_NAME  BASIS_SET
    POTENTIAL_FILE_NAME  GTH_POTENTIALS
    &QS
      EPS_DEFAULT 1.0E-10
    &END QS
    &MGRID
      NGRIDS 4
      CUTOFF 135
      REL_CUTOFF 115
    &END MGRID
    &XC
      &XC_FUNCTIONAL PADE
      &END XC_FUNCTIONAL
    &END XC
    &SCF
      SCF_GUESS ATOMIC
      EPS_SCF 1.0E-7
      MAX_SCF 300
      &DIAGONALIZATION  ON
        ALGORITHM STANDARD
      &END DIAGONALIZATION
      &MIXING  T
        METHOD BROYDEN_MIXING
        ALPHA 0.4
        NBROYDEN 8
      &END MIXING
    &END SCF
  &END DFT
  &PRINT
    &FORCES ON
    &END FORCES
  &END PRINT
&END FORCE_EVAL
