&GLOBAL
  PROJECT H2O_bulk
  RUN_TYPE ENERGY_FORCE
  PRINT_LEVEL LOW
&END GLOBAL
&FORCE_EVAL
  METHOD Quickstep
  &SUBSYS
    &KIND H
      ELEMENT   H
      BASIS_SET DZVP-GTH-PBE
      POTENTIAL GTH-PBE-q1
    &END KIND
    &KIND O
      ELEMENT   O
      BASIS_SET DZVP-GTH-PBE
      POTENTIAL GTH-PBE-q6
    &END KIND
    &CELL
      A     46.937    0.000000000    0.000000000
      B     0.000000000    44.121    0.000000000
      C     0.000000000    0.000000000    45.182
    &END CELL
    &COORD

O 4.81845000 2.65824000 18.78250000
H 5.82250000 1.47666000 17.79380000
H 5.10957000 4.31157000 18.08480000
O 18.91540000 1.50150000 23.54760000
H 20.07650000 0.86750800 22.28540000
H 18.15150000 2.98245000 22.74170000
O 17.70800000 18.53480000 23.77380000
H 16.18390000 19.27660000 23.08880000
H 17.82510000 16.89050000 22.97310000
O 14.51360000 23.00580000 0.16845400
H 16.24480000 -0.73834700 -0.06910000
H 14.32270000 22.86530000 1.97823000
O 2.33731000 21.40550000 13.38240000
H 1.42292000 20.36730000 12.19970000
H 2.33791000 20.48740000 14.95970000
O 12.78850000 17.50340000 7.77341000
H 13.27030000 17.67570000 9.52688000
H 10.96540000 17.54210000 7.60744000
O 16.97790000 16.01890000 4.80381000
H 16.98930000 17.69620000 4.12327000
H 15.39450000 15.86070000 5.67565000
O 22.60190000 19.95930000 10.19910000
H 22.71900000 21.58890000 9.40559000
H 22.38230000 18.79650000 8.81556000
O 20.43160000 12.07480000 6.18418000
H 21.59860000 11.26410000 7.29354000
H 20.84270000 13.82260000 5.91464000
O 22.79490000 15.12680000 15.65930000
H 22.76300000 13.33420000 15.94790000
H 0.11285500 15.62250000 16.25700000
O 8.28831000 7.20035000 11.78450000
H 7.00602000 6.32247000 10.84550000
H 8.91830000 8.54374000 10.65860000
O 23.21110000 0.86967600 19.78870000
H 0.45044500 0.52494600 20.57650000
H 22.70620000 23.76200000 18.80290000
O 1.13581000 2.00152000 13.99550000
H 1.44431000 2.54196000 15.70190000
H 1.81727000 0.27756600 13.89150000
O 21.03200000 3.26994000 4.22245000
H 20.78800000 2.58040000 2.55470000
H 19.43600000 4.12858000 4.54571000
O 7.48583000 9.22819000 4.72756000
H 5.83995000 9.29633000 3.97017000
H 7.78937000 10.95380000 5.22682000
O 16.53030000 8.75120000 7.88807000
H 17.72700000 9.84726000 7.05991000
H 16.07870000 7.47823000 6.63238000
O 11.24050000 18.72770000 13.95110000
H 10.82200000 17.06290000 13.32340000
H 11.90280000 18.31470000 15.60210000
O 11.20050000 10.36760000 8.84227000
H 12.39520000 9.05818000 8.44961000
H 12.15560000 11.48840000 10.00300000
O 18.20690000 0.71895200 7.83534000
H 18.76490000 0.33383600 9.50489000
H 19.53230000 0.32108800 6.65587000
O 21.52940000 20.64880000 18.28850000
H 22.88760000 19.71640000 17.58800000
H 19.99370000 20.35720000 17.33790000
O 12.25260000 7.57995000 1.88972000
H 12.95260000 9.29243000 2.14188000
H 10.49640000 7.72438000 2.35549000
O 14.64690000 22.39950000 5.97399000
H 14.53400000 20.68890000 6.58336000
H 15.95700000 23.26610000 6.96535000
O 7.52980000 19.23430000 19.95660000
H 8.21807000 20.74620000 19.22800000
H 7.41803000 19.50510000 21.74650000
O 7.05505000 22.10140000 11.11070000
H 8.19246000 20.90500000 11.87570000
H 5.60941000 22.13410000 12.20510000
O 5.59320000 15.01260000 13.53840000
H 5.75429000 13.23040000 13.98750000
H 5.17318000 15.01410000 11.77340000
O 22.83640000 9.09834000 13.48290000
H 20.98560000 9.37316000 13.51780000
H 23.15900000 8.92335000 11.65870000
O 3.41065000 2.90799000 -0.30611900
H 4.29217000 2.69647000 22.44660000
H 2.85620000 4.64675000 -0.28834000
O 23.58390000 13.81330000 23.09780000
H 23.17310000 15.53250000 23.53020000
H 0.84518800 13.53550000 23.88330000
O 22.77070000 6.06038000 18.03290000
H 22.33940000 4.30229000 18.13500000
H 22.69480000 6.61497000 16.28750000
O 3.46303000 4.75371000 9.90252000
H 2.66846000 4.36760000 11.53540000
H 3.42265000 3.14712000 9.02263000
O 16.20470000 17.98090000 11.88310000
H 17.83430000 18.79570000 11.70570000
H 15.41250000 18.87790000 13.26870000
O 12.47620000 17.02850000 19.01400000
H 10.69450000 17.38410000 19.13860000
H 12.51690000 15.25360000 19.45350000
O 18.04110000 14.41900000 19.53790000
H 19.27410000 13.36250000 20.31680000
H 18.99040000 15.59840000 18.54730000
O 2.15926000 0.39712200 7.63128000
H 3.12742000 23.58150000 8.61327000
H 1.79460000 -0.42531700 6.04984000
O 6.87691000 19.76560000 1.07514000
H 6.81331000 21.60300000 1.42679000
H 5.18162000 19.29480000 0.65197400
O 8.82859000 23.87160000 17.36430000
H 9.80922000 -0.01565100 18.83950000
H 9.52974000 0.51721700 15.99980000
O 5.12278000 14.21390000 4.00045000
H 5.26402000 14.12980000 2.19399000
H 5.98254000 15.72390000 4.51447000
O 7.22111000 0.31444900 2.14310000
H 8.31469000 0.90418500 3.52028000
H 5.75445000 1.44560000 2.02927000
O 10.63580000 1.54105000 6.16353000
H 10.10000000 1.67567000 7.89085000
H 11.98230000 0.30091300 6.20326000
O 15.47910000 9.74120000 17.74110000
H 15.30470000 9.29723000 19.48710000
H 16.64580000 11.11580000 17.74410000
O 16.41670000 20.82090000 16.83080000
H 15.45790000 19.48150000 17.59640000
H 15.50390000 22.40710000 16.99370000
O 0.51068200 8.21910000 8.51494000
H -0.00102600 8.34354000 6.78284000
H 1.67572000 6.68439000 8.85225000
O 6.95696000 10.31370000 15.54480000
H 5.76475000 9.63026000 16.71650000
H 7.48323000 8.93957000 14.44040000
O 2.18997000 13.78820000 9.18150000
H 2.37128000 11.94060000 9.25791000
H 0.70473900 14.07680000 10.20620000
O 18.04540000 6.50749000 21.99980000
H 18.80680000 6.68754000 23.63630000
H 19.36910000 6.92937000 20.83400000
O 10.70040000 12.73310000 21.87930000
H 12.00810000 13.10300000 23.13050000
H 10.97490000 10.96680000 21.43150000
O -0.41466500 17.10240000 4.81854000
H 0.53098000 15.92770000 5.86880000
H 0.94231900 17.94460000 3.90921000
O 1.02720000 23.08920000 2.27808000
H 1.74985000 0.22829900 1.48638000
H 0.00703200 22.23970000 1.02058000
O 7.80454000 18.45010000 6.52119000
H 7.99379000 19.15920000 4.84763000
H 7.79927000 19.85430000 7.67155000
O 3.74879000 7.72461000 20.68050000
H 2.25088000 7.25202000 19.78480000
H 3.62860000 9.51715000 20.94200000
O 20.38740000 10.83810000 1.59664000
H 20.56470000 11.37610000 3.44758000
H 21.38010000 11.77110000 0.43123000
O 14.56630000 1.56142000 15.77360000
H 13.18700000 1.35762000 14.58710000
H 16.02350000 1.92696000 14.73090000
O 17.68710000 8.69140000 12.84820000
H 16.94430000 8.21849000 14.42400000
H 16.37860000 8.82903000 11.47020000
O 10.75330000 1.83331000 22.40200000
H 9.54305000 2.02032000 23.73510000
H 12.31700000 1.47163000 23.27130000
O 14.89220000 12.06040000 1.32415000
H 15.21680000 13.51100000 2.39004000
H 16.54980000 11.57420000 0.71179700
O 23.03820000 19.23510000 23.32980000
H 21.31250000 18.65240000 -0.80335200
H 22.88530000 19.99290000 21.66460000
O 4.96320000 13.33280000 22.12620000
H 4.82609000 14.71820000 20.96960000
H 6.67935000 12.72260000 21.90920000
O 0.21156300 6.97801000 2.74396000
H 23.44880000 8.18171000 1.94862000
H 23.41270000 5.70569000 3.39282000
O 9.77845000 7.64879000 20.74260000
H 9.06609000 6.43084000 19.60320000
H 10.00180000 6.74018000 22.30250000
O 3.24020000 17.67430000 17.41300000
H 3.91850000 17.29130000 15.74520000
H 4.80112000 17.87980000 18.39370000
O 15.74190000 4.89203000 4.62424000
H 15.70770000 3.36611000 5.58370000
H 14.07610000 5.22654000 3.91428000
O 9.95604000 1.76840000 12.32530000
H 8.81362000 0.34830500 12.14150000
H 8.96310000 3.27979000 12.49770000
O 12.56480000 13.28830000 13.06250000
H 14.11000000 14.23480000 12.77480000
H 12.77880000 12.44600000 14.67050000
O 19.57870000 2.76472000 13.06760000
H 21.17240000 2.73712000 13.93230000
H 19.74360000 4.09489000 11.83840000
    
    &END COORD
  &END SUBSYS
  &DFT
    BASIS_SET_FILE_NAME  BASIS_SET
    POTENTIAL_FILE_NAME  GTH_POTENTIALS
    &QS
      EPS_DEFAULT 1.0E-10
    &END QS
    &MGRID
      NGRIDS 4
      CUTOFF 135
      REL_CUTOFF 115
    &END MGRID
    &XC
      &XC_FUNCTIONAL PADE
      &END XC_FUNCTIONAL
    &END XC
    &SCF
      SCF_GUESS ATOMIC
      EPS_SCF 1.0E-7
      MAX_SCF 300
      &DIAGONALIZATION  ON
        ALGORITHM STANDARD
      &END DIAGONALIZATION
      &MIXING  T
        METHOD BROYDEN_MIXING
        ALPHA 0.4
        NBROYDEN 8
      &END MIXING
    &END SCF
  &END DFT
  &PRINT
    &FORCES ON
    &END FORCES
  &END PRINT
&END FORCE_EVAL
