&GLOBAL
  PROJECT H2O_bulk
  RUN_TYPE ENERGY_FORCE
  PRINT_LEVEL LOW
&END GLOBAL
&FORCE_EVAL
  METHOD Quickstep
  &SUBSYS
    &KIND H
      ELEMENT   H
      BASIS_SET DZVP-GTH-PBE
      POTENTIAL GTH-PBE-q1
    &END KIND
    &KIND O
      ELEMENT   O
      BASIS_SET DZVP-GTH-PBE
      POTENTIAL GTH-PBE-q6
    &END KIND
    &CELL
      A     46.937    0.000000000    0.000000000
      B     0.000000000    44.121    0.000000000
      C     0.000000000    0.000000000    45.182
    &END CELL
    &COORD

O 19.23870000 13.08200000 7.27087000
H 17.57820000 12.69370000 6.61528000
H 19.64780000 14.83190000 6.95254000
O 17.24400000 18.57460000 14.65310000
H 18.33720000 19.43100000 15.86250000
H 15.52300000 18.79590000 15.24140000
O 16.66790000 13.18970000 13.30970000
H 16.99720000 13.42310000 11.54250000
H 17.09240000 14.85230000 13.94980000
O 8.07211000 16.57610000 11.24070000
H 7.70898000 18.29710000 11.75810000
H 8.92148000 16.76120000 9.62430000
O 5.63263000 11.84800000 6.46808000
H 4.42918000 12.93030000 5.62574000
H 5.26526000 12.10620000 8.22438000
O 3.30969000 22.06320000 19.45960000
H 2.42127000 22.72820000 18.00350000
H 2.51359000 22.81470000 20.92520000
O 7.27615000 21.15950000 13.39040000
H 7.61223000 22.79540000 12.62760000
H 5.47888000 21.04730000 13.56240000
O 8.49868000 23.76520000 20.32520000
H 8.36781000 0.65033400 20.76330000
H 6.85228000 23.24660000 19.71880000
O 1.48935000 7.58972000 9.62668000
H 0.06135500 7.72455000 8.51898000
H 0.82438200 8.41329000 11.14450000
O 0.19414600 23.64390000 24.09770000
H 0.00286300 0.54018700 -0.29352900
H 0.47854000 22.74320000 0.78225400
O 20.64940000 18.97810000 7.04608000
H 20.09240000 19.84900000 8.57297000
H 19.37220000 19.35810000 5.78297000
O 3.97900000 12.83200000 12.58200000
H 5.15292000 14.13400000 12.10990000
H 2.42991000 13.26550000 11.69190000
O 21.81010000 19.82350000 23.32520000
H 22.60360000 18.16810000 23.50030000
H 23.09010000 21.13720000 23.45520000
O 5.83007000 6.13291000 18.84700000
H 6.21427000 7.46026000 17.65900000
H 7.45445000 5.38347000 19.26550000
O 0.42474700 2.76074000 8.95613000
H 1.87708000 1.72005000 8.65908000
H 1.10799000 4.45509000 9.33528000
O 10.02160000 4.21258000 21.08060000
H 11.83780000 4.01115000 20.64630000
H 9.97067000 5.60329000 22.23530000
O 1.68328000 23.37140000 14.14060000
H 2.76312000 -0.04949200 13.82940000
H 0.00191900 24.10700000 13.95610000
O 13.49800000 23.49690000 7.80835000
H 13.42910000 23.09390000 6.02230000
H 14.14360000 0.32817400 7.82101000
O 18.01890000 19.28380000 2.39862000
H 17.47910000 17.54250000 2.23532000
H 19.02450000 19.59430000 0.88086000
O 2.43635000 16.93070000 19.71390000
H 4.20285000 16.73220000 20.06540000
H 2.20320000 18.72760000 19.99740000
O 12.25260000 20.20160000 15.23480000
H 10.59840000 20.06650000 14.46750000
H 12.08510000 19.93680000 17.03220000
O 7.23900000 9.09035000 14.16570000
H 8.82643000 10.01110000 14.04120000
H 5.94559000 10.35180000 13.84020000
O 5.37268000 3.03531000 3.82297000
H 6.25004000 2.00064000 2.59503000
H 6.47042000 4.42062000 4.28173000
O 8.99946000 0.07045300 9.99013000
H 10.58240000 24.43490000 9.20167000
H 9.20866000 1.86808000 10.26190000
O 15.74410000 14.39470000 0.53751900
H 16.39280000 13.96840000 23.76370000
H 16.32430000 13.00060000 1.57498000
O 18.49660000 21.73600000 10.86270000
H 16.81960000 22.18900000 10.34590000
H 18.18360000 20.68880000 12.35790000
O 18.52330000 3.19862000 15.54350000
H 17.06040000 2.10054000 15.50990000
H 19.33250000 2.88730000 13.94260000
O 7.79993000 13.22960000 19.99210000
H 8.35265000 12.17800000 18.61170000
H 9.22104000 14.32550000 20.26160000
O 13.60510000 0.58573700 14.76440000
H 12.68820000 1.33107000 16.15190000
H 13.08430000 23.71640000 14.57250000
O 16.69260000 9.59249000 1.78147000
H 17.97490000 9.28110000 0.52435500
H 16.89750000 8.20336000 2.92058000
O 21.04370000 20.70540000 17.81770000
H 22.43130000 19.70360000 17.15580000
H 20.80950000 19.99540000 19.48870000
O 8.78515000 7.51465000 4.82254000
H 9.63868000 7.89296000 3.26834000
H 7.89453000 9.03484000 5.34631000
O 14.50740000 3.45634000 19.35290000
H 15.63940000 2.80764000 20.66200000
H 15.30140000 4.99101000 18.79760000
O 22.84330000 14.86980000 22.81570000
H 23.33810000 13.95890000 24.33040000
H -0.58745600 14.61850000 21.73610000
O 13.71690000 11.67740000 7.06379000
H 13.10690000 11.91000000 5.36942000
H 12.67650000 12.82820000 7.99511000
O 9.07044000 11.86380000 0.11768100
H 10.84490000 12.21210000 0.16140300
H 8.56681000 12.19690000 23.26010000
O 0.18984700 11.81090000 1.50853000
H 1.27519000 12.66150000 2.70617000
H 1.26531000 11.11700000 0.20591000
O 9.54601000 5.44480000 10.03590000
H 8.38643000 6.50735000 10.96430000
H 9.20400000 5.83166000 8.28998000
O 18.06690000 8.03466000 16.86340000
H 17.08310000 8.98129000 15.67300000
H 18.41800000 6.46762000 15.96000000
O 14.69340000 3.51142000 9.81206000
H 13.06380000 4.25403000 10.17470000
H 14.87610000 2.45099000 11.27660000
O 11.09020000 12.52260000 14.44610000
H 12.60170000 12.78080000 13.47050000
H 10.13740000 14.00510000 13.99540000
O -0.76012300 9.20703000 14.52190000
H 22.49250000 8.40350000 14.52070000
H 23.86420000 11.01000000 14.48620000
O 10.19340000 20.63560000 24.06470000
H 9.82067000 21.91000000 22.76780000
H 11.27640000 21.41220000 0.42955800
O 7.64320000 17.38890000 2.81063000
H 8.34150000 15.73220000 3.09424000
H 8.35714000 17.84600000 1.19113000
O 17.29590000 2.33002000 23.48190000
H 16.75120000 3.47837000 -0.09528200
H 18.88180000 3.05761000 22.95520000
O 18.31940000 14.02240000 20.19890000
H 18.47370000 12.97360000 18.72890000
H 19.99500000 14.24140000 20.91860000
O 0.24429200 20.51220000 3.94916000
H 23.51300000 20.37590000 4.80384000
H 1.41813000 21.11320000 5.20045000
O 4.32639000 23.71730000 6.91702000
H 4.40813000 0.26519600 5.76933000
H 5.92239000 23.81000000 7.81938000
O 22.73890000 9.15506000 5.88198000
H 23.84310000 10.04390000 4.72486000
H 21.49030000 10.35960000 6.48004000
O 2.73231000 15.62950000 4.23449000
H 1.53331000 16.94280000 3.81051000
H 4.33175000 16.29210000 3.62896000
O 15.85820000 3.68334000 4.03441000
H 14.76600000 3.21072000 5.44152000
H 17.48570000 3.45775000 4.87498000
O 21.81660000 3.92058000 5.14525000
H 23.03510000 3.47907000 6.43886000
H 22.01910000 5.73736000 5.00010000
O 22.06240000 0.78091000 12.46140000
H 21.18910000 -0.70137300 11.84440000
H 23.07640000 1.39136000 11.05120000
O 12.44110000 17.49970000 20.41510000
H 13.83740000 16.39770000 20.75200000
H 12.48170000 18.77590000 21.71850000
O 24.06390000 14.50110000 11.84370000
H 23.10580000 14.88210000 10.36370000
H -0.39024300 16.09780000 12.66300000
O 20.62360000 7.38252000 22.79690000
H 19.99080000 7.20321000 21.11080000
H 22.36540000 7.82071000 22.44640000
O 10.91410000 17.09070000 6.79768000
H 10.09080000 17.97890000 5.42664000
H 12.02420000 18.24530000 7.63425000
O 22.01230000 1.81193000 19.42160000
H 21.66210000 0.05088000 19.17050000
H 21.19610000 2.54159000 17.96480000
O 5.55875000 23.48390000 1.22631000
H 6.58423000 22.46090000 0.13947700
H 5.59488000 22.62820000 2.82208000
O 0.83818800 3.52453000 1.07754000
H -0.42969700 4.02575000 2.28430000
H 2.30096000 3.44108000 2.17740000
O 4.28156000 3.14769000 14.03680000
H 3.07295000 4.44966000 13.69560000
H 4.99020000 3.77137000 15.59090000
O 1.36278000 7.58977000 22.65390000
H 2.56022000 6.89243000 21.46740000
H 1.02037000 6.22042000 23.83090000
O 0.09798300 18.23980000 15.14240000
H 0.97029800 19.74970000 14.60560000
H 1.09034000 17.52480000 16.51860000
O 14.42400000 22.78170000 2.64596000
H 15.61610000 21.40730000 2.97357000
H 15.47120000 -1.02750000 1.61066000
    
    &END COORD
  &END SUBSYS
  &DFT
    BASIS_SET_FILE_NAME  BASIS_SET
    POTENTIAL_FILE_NAME  GTH_POTENTIALS
    &QS
      EPS_DEFAULT 1.0E-10
    &END QS
    &MGRID
      NGRIDS 4
      CUTOFF 135
      REL_CUTOFF 115
    &END MGRID
    &XC
      &XC_FUNCTIONAL PADE
      &END XC_FUNCTIONAL
    &END XC
    &SCF
      SCF_GUESS ATOMIC
      EPS_SCF 1.0E-7
      MAX_SCF 300
      &DIAGONALIZATION  ON
        ALGORITHM STANDARD
      &END DIAGONALIZATION
      &MIXING  T
        METHOD BROYDEN_MIXING
        ALPHA 0.4
        NBROYDEN 8
      &END MIXING
    &END SCF
  &END DFT
  &PRINT
    &FORCES ON
    &END FORCES
  &END PRINT
&END FORCE_EVAL
