&GLOBAL
  PROJECT H2O_bulk
  RUN_TYPE ENERGY_FORCE
  PRINT_LEVEL LOW
&END GLOBAL
&FORCE_EVAL
  METHOD Quickstep
  &SUBSYS
    &KIND H
      ELEMENT   H
      BASIS_SET DZVP-GTH-PBE
      POTENTIAL GTH-PBE-q1
    &END KIND
    &KIND O
      ELEMENT   O
      BASIS_SET DZVP-GTH-PBE
      POTENTIAL GTH-PBE-q6
    &END KIND
    &CELL
      A     46.937    0.000000000    0.000000000
      B     0.000000000    44.121    0.000000000
      C     0.000000000    0.000000000    45.182
    &END CELL
    &COORD

O 3.49660000 7.88965000 22.39030000
H 2.21601000 8.96229000 21.60340000
H 4.30989000 9.07369000 23.49770000
O 20.18240000 1.38358000 17.03680000
H 20.02950000 22.82740000 16.47850000
H 18.47260000 1.96623000 16.89310000
O 14.32890000 14.73960000 13.64230000
H 15.48500000 14.96290000 12.24080000
H 12.83050000 13.88880000 13.06760000
O 16.12500000 23.11900000 9.32232000
H 15.57210000 22.00470000 7.99936000
H 14.51550000 0.44311000 10.02690000
O 8.21851000 14.71110000 20.94040000
H 8.54114000 15.36790000 19.20840000
H 7.55460000 16.26280000 21.86340000
O 17.62670000 7.24201000 11.13610000
H 18.23000000 8.89278000 11.67510000
H 19.06550000 6.17820000 10.72520000
O 1.29939000 2.95075000 14.26440000
H 1.27999000 4.77828000 14.77750000
H 22.87130000 2.42790000 14.97000000
O 1.17671000 18.44910000 12.56600000
H 0.59011800 17.01340000 11.60260000
H 1.18332000 19.78730000 11.34900000
O 12.02390000 16.94450000 1.42450000
H 12.09840000 15.83590000 2.87711000
H 12.58210000 16.09020000 -0.10539900
O 19.96810000 18.30050000 7.10397000
H 20.62730000 19.80460000 6.27009000
H 18.91070000 17.38830000 5.90519000
O 19.41360000 19.64300000 16.19520000
H 20.52880000 18.21350000 15.81110000
H 17.98390000 19.31070000 15.11350000
O 6.43686000 2.14931000 4.31695000
H 5.89100000 0.42967100 4.72506000
H 8.25208000 2.18213000 4.59667000
O 1.31684000 14.73990000 2.89761000
H 2.27536000 16.21230000 2.47256000
H 2.36453000 13.87170000 4.12199000
O 1.01505000 7.87522000 15.22880000
H 0.07350800 7.80705000 16.79630000
H 23.41130000 9.09027000 14.13340000
O 7.50996000 17.52030000 16.24600000
H 7.58257000 17.27770000 14.44030000
H 6.46818000 19.04330000 16.53490000
O 5.76085000 14.88690000 7.26088000
H 7.18429000 14.30800000 6.25218000
H 6.00858000 16.68610000 7.22954000
O 16.16190000 3.08661000 22.25150000
H 14.83470000 3.08239000 0.30085900
H 15.99200000 1.48325000 21.35150000
O 10.20760000 3.15371000 23.05060000
H 9.38567000 2.21066000 1.18496000
H 10.80960000 1.88042000 21.86490000
O 21.99410000 4.60505000 9.54605000
H 23.19970000 4.83603000 10.89750000
H 22.74910000 5.58706000 8.22470000
O 8.29241000 10.51740000 22.56900000
H 9.80025000 10.63440000 23.56330000
H 8.03914000 12.67040000 21.51050000
O 10.44450000 10.44750000 16.99370000
H 9.90213000 8.86525000 17.70820000
H 12.11000000 10.84330000 17.63560000
O 1.05442000 16.71700000 17.50420000
H 2.05831000 16.97960000 16.01100000
H 1.76345000 15.34040000 18.43510000
O 21.53670000 19.70880000 21.41230000
H 20.69710000 20.40740000 19.95390000
H 22.15080000 18.12090000 20.77700000
O 20.64710000 3.32273000 1.76108000
H 22.08700000 2.85649000 0.75204600
H 19.15920000 3.16078000 0.67255200
O 12.30890000 19.44670000 15.05560000
H 13.05850000 17.75480000 14.90080000
H 10.86280000 19.09670000 16.26610000
O 1.61230000 10.52920000 5.99231000
H -0.19596000 10.06970000 5.85904000
H 2.48132000 8.99622000 6.49495000
O 14.44610000 15.45530000 19.40470000
H 14.54250000 14.84520000 17.68890000
H 8.45206000 8.93935000 21.51430000
O 9.84711000 4.23306000 15.17920000
H 8.81254000 4.36465000 16.67820000
H 11.60320000 4.45147000 15.76990000
O 2.41514000 2.82908000 0.72443900
H 2.74673000 4.32397000 22.95180000
H 3.15256000 3.14218000 2.35839000
O 14.77680000 21.98260000 19.73160000
H 14.93620000 21.44990000 18.01200000
H 13.27550000 21.03770000 20.11770000
O 5.71014000 22.07560000 17.63710000
H 4.46039000 22.08030000 19.00290000
H 4.90525000 22.99350000 16.29280000
O 6.03864000 17.64200000 1.15020000
H 4.98822000 19.05510000 0.55881500
H 7.14691000 18.43850000 2.37336000
O 3.11640000 21.49530000 21.90420000
H 3.29043000 23.01580000 22.90090000
H 1.30661000 21.19040000 21.69010000
O 19.12620000 12.93110000 18.85980000
H 17.81480000 14.17300000 19.40270000
H 20.32520000 12.67120000 20.23240000
O 20.54410000 8.47181000 3.28658000
H 20.76530000 6.72761000 2.76121000
H 18.75810000 8.73706000 3.54191000
O 8.64862000 11.67760000 4.46610000
H 8.15071000 11.56150000 2.72769000
H 7.54967000 10.51280000 5.31518000
O 17.34440000 17.97160000 11.61890000
H 15.85440000 18.93130000 11.26430000
H 18.43970000 18.60370000 10.29240000
O 5.45872000 7.27040000 6.55813000
H 5.42411000 5.90616000 5.32736000
H 5.93338000 6.48486000 8.15990000
O 5.11798000 12.44620000 11.89940000
H 4.43072000 13.88480000 12.77570000
H 5.52421000 13.13330000 10.22900000
O 4.40233000 0.48491200 11.05540000
H 3.21678000 1.62633000 11.93090000
H 5.36207000 1.82005000 10.14010000
O 11.44950000 3.46855000 5.53117000
H 11.10560000 4.78460000 6.72498000
H 12.66190000 2.42206000 6.57958000
O 17.61500000 14.47770000 4.47385000
H 16.79590000 12.90430000 4.09637000
H 17.09640000 15.47630000 2.95711000
O 22.48530000 11.75050000 22.60670000
H 21.46580000 10.80640000 0.61374100
H 23.21640000 13.07880000 0.49342500
O 10.53260000 11.70840000 11.74840000
H 8.84316000 12.24990000 12.20650000
H 11.08510000 10.56090000 13.05360000
O 7.89681000 6.02900000 19.95250000
H 8.31572000 4.59129000 21.08570000
H 6.16706000 6.51639000 20.29400000
O 19.83500000 11.56850000 13.28470000
H 19.58060000 13.05090000 14.27950000
H 20.97340000 12.15790000 11.97090000
O 15.16160000 5.00366000 15.40710000
H 15.02850000 6.48754000 16.46250000
H 15.84860000 5.67215000 13.84600000
O 22.75720000 13.80000000 9.75604000
H 21.67290000 14.60340000 8.50852000
H 0.86842400 12.97830000 8.75664000
O 9.69483000 20.02540000 5.58680000
H 10.37340000 18.39260000 6.01923000
H 9.10491000 20.60540000 7.21477000
O 16.07400000 8.79376000 19.46730000
H 17.17000000 7.35788000 19.69050000
H 17.32180000 10.16460000 19.18680000
O 12.16540000 8.32926000 0.23802500
H 13.46810000 8.39875000 22.09620000
H 11.92220000 6.58489000 0.74160500
O 6.35365000 6.12484000 11.58860000
H 7.79306000 5.82690000 12.71930000
H 5.87563000 7.85355000 11.86410000
O 7.37815000 19.38580000 10.48270000
H 6.13286000 20.68590000 10.78880000
H 8.79280000 19.88660000 11.52720000
O 12.73480000 7.85562000 8.89486000
H 14.31240000 7.52964000 9.76212000
H 12.17050000 9.50563000 9.46560000
O 3.58635000 21.51220000 5.89191000
H 3.57811000 22.02800000 7.64963000
H 2.11056000 22.41430000 5.28935000
O 21.69200000 6.24034000 19.86600000
H 22.81490000 6.08262000 21.28340000
H 21.28680000 4.60543000 19.20860000
O 21.28920000 23.12550000 5.60717000
H 21.03130000 1.09849000 4.19910000
H 20.12280000 0.50280700 6.87527000
O 10.18820000 21.28450000 22.38560000
H 10.90970000 20.17480000 0.46476900
H 8.75565000 20.44310000 21.67330000
O 15.06700000 9.94681000 4.37654000
H 14.96440000 8.55595000 5.55678000
H 13.88080000 9.61826000 3.01027000
O 12.49710000 14.62110000 6.25463000
H 14.18090000 15.27500000 5.95824000
H 12.83190000 12.83860000 5.94663000
O 11.34470000 0.22652800 11.97390000
H 12.02620000 22.02390000 13.03110000
H 10.49830000 1.27426000 13.22350000
O 14.17090000 22.64170000 3.71086000
H 12.83840000 21.58040000 4.40173000
H 15.45770000 21.51330000 3.08239000
O 17.07710000 18.65490000 1.11252000
H 18.60830000 18.68360000 0.13683500
H 15.68670000 18.75040000 23.14260000
O 4.59810000 11.42850000 17.37380000
H 6.19375000 11.53880000 18.22520000
H 5.24944000 10.84650000 15.77400000
    
    &END COORD
  &END SUBSYS
  &DFT
    BASIS_SET_FILE_NAME  BASIS_SET
    POTENTIAL_FILE_NAME  GTH_POTENTIALS
    &QS
      EPS_DEFAULT 1.0E-10
    &END QS
    &MGRID
      NGRIDS 4
      CUTOFF 135
      REL_CUTOFF 115
    &END MGRID
    &XC
      &XC_FUNCTIONAL PADE
      &END XC_FUNCTIONAL
    &END XC
    &SCF
      SCF_GUESS ATOMIC
      EPS_SCF 1.0E-7
      MAX_SCF 300
      &DIAGONALIZATION  ON
        ALGORITHM STANDARD
      &END DIAGONALIZATION
      &MIXING  T
        METHOD BROYDEN_MIXING
        ALPHA 0.4
        NBROYDEN 8
      &END MIXING
    &END SCF
  &END DFT
  &PRINT
    &FORCES ON
    &END FORCES
  &END PRINT
&END FORCE_EVAL
