&GLOBAL
  PROJECT H2O_bulk
  RUN_TYPE ENERGY_FORCE
  PRINT_LEVEL LOW
&END GLOBAL
&FORCE_EVAL
  METHOD Quickstep
  &SUBSYS
    &KIND H
      ELEMENT   H
      BASIS_SET DZVP-GTH-PBE
      POTENTIAL GTH-PBE-q1
    &END KIND
    &KIND O
      ELEMENT   O
      BASIS_SET DZVP-GTH-PBE
      POTENTIAL GTH-PBE-q6
    &END KIND
    &CELL
      A     46.937    0.000000000    0.000000000
      B     0.000000000    44.121    0.000000000
      C     0.000000000    0.000000000    45.182
    &END CELL
    &COORD

O 6.44160000 10.71070000 4.11473000
H 7.51608000 12.16320000 4.13397000
H 5.07692000 11.04720000 2.96777000
O 19.82960000 21.32080000 14.55990000
H 18.99260000 22.96110000 14.79720000
H 19.32910000 20.28490000 15.98430000
O 7.96307000 17.56650000 13.51190000
H 9.60706000 16.97940000 13.07740000
H 7.81353000 17.03680000 15.24430000
O 21.53820000 1.58419000 7.27897000
H 21.35010000 1.73485000 5.48124000
H 20.49590000 0.20207100 7.80925000
O 13.32790000 16.09980000 18.63350000
H 13.83970000 14.36380000 19.06680000
H 12.09630000 16.52700000 19.91510000
O 2.60817000 6.47721000 15.13460000
H 2.09156000 5.35240000 13.79490000
H 3.39129000 5.28692000 16.34670000
O 9.44260000 2.52445000 21.18680000
H 8.10704000 3.46046000 20.41900000
H 8.58684000 1.01477000 21.80660000
O 6.05690000 14.73770000 17.66350000
H 5.03054000 14.18630000 16.25300000
H 6.69283000 13.17580000 18.35020000
O 9.67910000 16.84880000 22.90970000
H 8.38296000 15.80240000 23.61810000
H 11.15620000 15.89480000 -0.11384800
O 17.23070000 15.21590000 8.48376000
H 17.63670000 14.20850000 10.02630000
H 15.55430000 14.61520000 8.07865000
O 13.55310000 20.51880000 10.02240000
H 13.45640000 18.80910000 10.67300000
H 14.09790000 20.29920000 8.31762000
O 3.34978000 16.73970000 10.83910000
H 3.06503000 17.94540000 12.16900000
H 5.13265000 16.72300000 10.62410000
O 0.49845000 19.21730000 5.31105000
H 2.10671000 20.12370000 5.48659000
H 23.26630000 19.15560000 7.00536000
O 2.92606000 10.94900000 22.87560000
H 1.81546000 9.81348000 0.32740900
H 2.84870000 10.31850000 21.14550000
O 4.80224000 2.95926000 17.81010000
H 3.31541000 2.08464000 18.41120000
H 5.33006000 1.98572000 16.34850000
O 15.21070000 5.70453000 9.50577000
H 14.52420000 4.72509000 10.89190000
H 16.94510000 6.03052000 10.01780000
O 3.34895000 3.98582000 4.13121000
H 4.49973000 4.90333000 3.00246000
H 2.17702000 3.14586000 3.05513000
O 16.66400000 3.85226000 0.40853800
H 15.20640000 3.87497000 1.50163000
H 16.53730000 2.33574000 -0.57540800
O 2.19399000 1.98370000 11.63650000
H 3.92944000 2.02888000 11.13410000
H 1.21234000 1.55977000 10.13550000
O 13.29990000 6.50648000 4.19679000
H 14.34780000 6.25569000 5.58078000
H 11.79920000 5.73507000 4.61070000
O 23.41400000 9.49272000 18.51690000
H 0.61796700 8.52270000 17.06840000
H 21.92680000 8.61013000 19.09940000
O 15.50860000 11.65170000 20.22530000
H 15.68900000 10.86880000 21.88860000
H 17.17190000 12.38600000 19.94640000
O 19.07480000 12.55990000 12.47230000
H 20.24590000 11.41400000 11.62840000
H 17.81410000 11.42800000 13.21030000
O 13.34740000 22.50770000 14.79010000
H 14.72320000 22.25040000 15.90570000
H 13.91350000 22.25420000 13.10030000
O 8.93939000 18.86770000 7.85475000
H 8.42616000 17.44180000 8.90656000
H 10.32650000 19.61050000 8.81452000
O 2.17209000 8.68501000 6.08374000
H 1.72539000 7.16678000 5.21802000
H 3.94128000 8.83937000 5.82135000
O 8.49684000 14.02010000 9.05500000
H 8.81022000 13.44580000 10.74140000
H 10.14720000 14.37110000 8.41359000
O 6.55089000 6.12314000 1.04270000
H 7.15623000 7.51090000 2.04366000
H 7.88490000 4.90799000 24.27270000
O 18.65100000 6.94244000 5.35044000
H 17.72300000 7.01897000 6.88085000
H 19.82760000 8.28082000 5.45110000
O 6.99275000 22.58060000 14.64590000
H 5.83468000 21.60060000 13.67030000
H 8.02357000 21.30870000 15.47160000
O 0.39951800 0.50515300 19.32080000
H 0.92429200 23.00960000 20.81350000
H -0.30013600 22.63560000 18.22080000
O 1.86289000 14.86890000 3.33606000
H 3.13556000 14.15080000 4.39183000
H 1.59085000 16.61570000 3.91076000
O 11.53830000 6.74579000 18.52640000
H 12.04570000 5.28959000 19.54140000
H 12.92080000 7.97111000 18.64430000
O 20.54440000 18.97980000 1.26887000
H 21.01410000 19.60120000 2.96603000
H 19.84390000 17.31740000 1.71801000
O 15.89460000 20.52290000 19.17460000
H 15.24940000 18.81090000 18.83780000
H 17.69120000 20.37980000 18.89260000
O 19.82500000 14.09890000 3.74176000
H 19.31710000 14.16290000 5.50601000
H 21.65030000 14.26610000 3.68077000
O 13.66900000 18.13360000 4.55116000
H 11.86820000 18.10420000 4.87117000
H 13.96500000 19.68280000 3.56956000
O 15.00540000 9.30625000 14.41180000
H 15.45320000 7.62632000 13.89520000
H 13.17070000 9.41510000 14.29830000
O 3.63025000 12.16110000 12.88350000
H 3.55384000 13.82900000 12.03930000
H 4.98566000 11.22970000 12.08250000
O 11.64240000 13.47720000 2.84450000
H 12.26780000 15.01350000 3.58305000
H 13.03950000 12.96940000 1.75049000
O 14.98310000 1.22750000 6.23101000
H 14.03960000 23.07530000 6.10977000
H 14.19790000 2.22068000 7.55869000
O 21.16980000 18.37300000 19.22210000
H 21.07290000 16.60060000 18.80120000
H 20.77170000 18.53030000 20.97850000
O 19.97010000 13.04820000 17.71830000
H 19.97050000 13.14700000 15.89920000
H 21.31910000 11.80330000 18.04710000
O 12.75830000 15.94340000 13.06610000
H 12.45730000 14.45420000 14.05280000
H 13.39360000 17.12510000 14.27550000
O 7.72512000 10.06960000 20.07380000
H 8.49626000 8.39830000 19.89930000
H 6.57200000 9.88640000 21.45350000
O 18.53140000 3.15908000 15.51480000
H 19.01600000 3.98340000 13.97530000
H 19.85890000 3.51257000 16.69840000
O 20.49580000 4.87938000 20.16780000
H 21.53940000 3.46302000 20.60150000
H 18.80480000 4.53292000 20.76940000
O 20.10590000 5.20595000 10.97740000
H 20.35030000 3.99559000 9.60187000
H 21.41470000 6.48336000 10.81780000
O 13.16450000 10.98800000 7.99445000
H 13.47710000 9.42239000 8.86763000
H 14.13350000 10.84290000 6.46864000
O 15.89990000 21.79490000 1.03491000
H 17.17450000 20.46460000 0.97102000
H 15.27580000 21.82130000 22.71230000
O 21.70190000 2.62322000 2.18515000
H 20.84490000 3.79175000 1.03454000
H 20.67090000 1.14939000 1.95090000
O 10.28750000 10.68490000 14.09610000
H 9.81137000 9.68040000 12.64640000
H 9.30190000 10.08960000 15.49360000
O 1.83259000 20.78590000 13.64640000
H 2.18024000 22.36420000 12.79300000
H 0.50961100 21.25010000 14.78080000
O 11.97620000 4.53846000 13.67400000
H 11.50280000 2.94388000 14.38250000
H 12.57620000 5.42010000 15.16420000
O 4.44678000 21.92520000 6.46849000
H 4.13837000 0.22229300 5.90596000
H 6.24928000 21.73140000 6.64861000
O 19.88360000 20.31520000 9.04094000
H 20.30840000 20.03570000 10.77560000
H 18.61200000 19.11810000 8.60010000
O 7.89735000 22.00030000 0.52353600
H 9.20485000 20.85850000 0.01929900
H 6.29504000 21.16960000 0.06709100
O 6.95329000 4.38997000 8.33329000
H 7.95981000 3.69519000 6.98297000
H 5.27445000 4.47425000 7.65688000
O 16.53020000 10.80400000 1.79952000
H 17.52100000 9.30170000 1.99211000
H 17.65120000 12.12280000 2.47967000
O 22.73220000 9.62752000 10.48880000
H 0.42706700 10.91830000 11.17630000
H 23.79670000 8.85672000 9.21416000
O 4.23071000 16.47900000 22.66230000
H 4.65071000 15.60540000 21.11180000
H 3.18851000 15.36580000 23.71680000
O 9.64576000 2.11731000 4.48777000
H 10.76500000 1.14145000 5.54689000
H 8.83848000 0.91507900 3.36822000
O 2.79643000 21.16400000 -0.11466900
H 2.67289000 19.35560000 22.91260000
H 2.64964000 21.23930000 1.69186000
O 7.12863000 8.99151000 10.03400000
H 7.30095000 10.44720000 8.93322000
H 7.63956000 7.50894000 9.00481000
    
    &END COORD
  &END SUBSYS
  &DFT
    BASIS_SET_FILE_NAME  BASIS_SET
    POTENTIAL_FILE_NAME  GTH_POTENTIALS
    &QS
      EPS_DEFAULT 1.0E-10
    &END QS
    &MGRID
      NGRIDS 4
      CUTOFF 135
      REL_CUTOFF 115
    &END MGRID
    &XC
      &XC_FUNCTIONAL PADE
      &END XC_FUNCTIONAL
    &END XC
    &SCF
      SCF_GUESS ATOMIC
      EPS_SCF 1.0E-7
      MAX_SCF 300
      &DIAGONALIZATION  ON
        ALGORITHM STANDARD
      &END DIAGONALIZATION
      &MIXING  T
        METHOD BROYDEN_MIXING
        ALPHA 0.4
        NBROYDEN 8
      &END MIXING
    &END SCF
  &END DFT
  &PRINT
    &FORCES ON
    &END FORCES
  &END PRINT
&END FORCE_EVAL
