&GLOBAL
  PROJECT H2O_bulk
  RUN_TYPE ENERGY_FORCE
  PRINT_LEVEL LOW
&END GLOBAL
&FORCE_EVAL
  METHOD Quickstep
  &SUBSYS
    &KIND H
      ELEMENT   H
      BASIS_SET DZVP-GTH-PBE
      POTENTIAL GTH-PBE-q1
    &END KIND
    &KIND O
      ELEMENT   O
      BASIS_SET DZVP-GTH-PBE
      POTENTIAL GTH-PBE-q6
    &END KIND
    &CELL
      A     46.937    0.000000000    0.000000000
      B     0.000000000    44.121    0.000000000
      C     0.000000000    0.000000000    45.182
    &END CELL
    &COORD

O 1.46279000 16.39360000 18.52420000
H 0.36726600 16.81950000 16.79600000
H 0.32546900 15.03090000 19.23870000
O 5.53592000 9.21877000 8.30580000
H 3.70675000 9.46481000 7.96617000
H 5.38478000 7.87789000 9.65268000
O 15.79930000 6.41537000 12.89460000
H 15.16590000 4.93573000 11.69080000
H 14.47430000 7.63372000 12.72220000
O 4.84055000 2.03468000 4.14194000
H 4.90038000 0.04334600 4.10258000
H 3.26709000 2.34674000 4.98521000
O 23.45230000 12.62570000 19.49960000
H 23.82750000 10.87890000 19.63660000
H 21.72550000 13.00130000 20.35890000
O 14.30450000 1.35166000 10.66730000
H 13.94920000 -0.45126500 10.36710000
H 12.70570000 2.23100000 10.92750000
O 11.96760000 20.80020000 19.02750000
H 11.38010000 23.08220000 19.56080000
H 10.06100000 20.32530000 18.45980000
O 11.45440000 9.25279000 10.69750000
H 10.24350000 7.95490000 11.41300000
H 10.36970000 10.11010000 9.29269000
O 1.27961000 17.95600000 23.15750000
H 2.53884000 17.23350000 22.28170000
H 0.36449600 16.80320000 24.12840000
O 2.16054000 20.97400000 5.28389000
H 3.58149000 19.82390000 5.25512000
H 1.39779000 20.80510000 3.47620000
O 7.12945000 22.91430000 2.63599000
H 7.18805000 21.98450000 0.93865400
H 8.38174000 22.04200000 3.40147000
O 20.22030000 7.02721000 5.24913000
H 20.76150000 7.66252000 3.63051000
H 18.51650000 7.10106000 5.01711000
O 13.85730000 20.78090000 9.75570000
H 14.37010000 21.46780000 8.14127000
H 15.51720000 20.37840000 10.69310000
O 6.05359000 22.75040000 17.43260000
H 5.67125000 22.80300000 15.39710000
H 7.08745000 21.08930000 17.68650000
O 19.42300000 1.14794000 8.81000000
H 19.58000000 0.19177000 7.20707000
H 17.57310000 1.85783000 8.73643000
O 6.36662000 8.61572000 23.79220000
H 7.56905000 7.38521000 24.62430000
H 7.31415000 9.24505000 22.33250000
O 23.83710000 6.12027000 9.22205000
H 23.21330000 6.80331000 7.65222000
H 24.79250000 4.50056000 8.92185000
O 24.18410000 22.25720000 1.15985000
H 22.35070000 22.07080000 0.84558600
H 25.00650000 20.97450000 -0.23743100
O 14.58420000 22.70120000 4.76473000
H 14.07770000 24.36740000 5.20145000
H 16.04160000 23.09120000 4.11150000
O 9.82785000 11.68090000 5.50811000
H 11.06430000 10.49450000 5.82180000
H 8.16291000 10.72820000 6.13714000
O 20.47220000 22.77130000 4.28297000
H 21.82250000 22.27510000 3.67658000
H 19.53770000 21.19540000 4.03171000
O 11.55030000 16.60030000 3.88599000
H 11.98470000 14.68310000 3.88917000
H 11.37410000 16.79020000 5.79951000
O 7.76595000 23.27350000 22.19550000
H 7.32804000 23.53580000 20.42650000
H 9.10703000 22.20380000 22.06200000
O 8.57205000 21.13660000 9.83991000
H 10.21620000 20.51040000 9.35288000
H 7.50086000 19.84570000 9.45911000
O 18.33130000 17.04460000 24.37330000
H 17.01220000 17.42540000 25.63400000
H 18.96980000 18.60090000 23.13990000
O 13.57240000 19.39790000 0.25309700
H 11.81510000 19.21500000 0.64198500
H 14.34580000 20.78670000 1.24829000
O 24.33700000 2.66330000 20.48940000
H 23.00420000 1.36434000 20.87320000
H 27.39530000 -0.09347300 23.38490000
O 21.65520000 9.40760000 0.67418200
H 21.55350000 11.25290000 0.77670000
H 23.43160000 9.02207000 1.03096000
O 21.05840000 3.59721000 15.05080000
H 21.48690000 1.70209000 14.34900000
H 22.68870000 4.11193000 15.29820000
O 12.39870000 1.84019000 19.13840000
H 12.29400000 3.72939000 18.56270000
H 14.17310000 1.47773000 19.19380000
O 11.81560000 7.67540000 2.54359000
H 11.64230000 8.93688000 1.26397000
H 10.67910000 6.26333000 1.88027000
O 1.31406000 5.95744000 17.03860000
H 0.84560000 4.43994000 17.91640000
H 3.17880000 5.49544000 16.73990000
O 7.37423000 17.57620000 17.60670000
H 8.31928000 16.19250000 18.70710000
H 6.14337000 17.74940000 18.50700000
O 1.68465000 7.99389000 22.21280000
H 1.31001000 6.80128000 21.37680000
H 3.29800000 7.74039000 22.84730000
O 0.37690500 0.80645500 7.51383000
H 1.40484000 -0.80125400 6.83088000
H -1.24089000 0.31542000 7.23678000
O 5.88091000 4.08407000 15.92070000
H 7.76655000 4.29628000 16.61260000
H 5.17484000 3.26702000 17.38880000
O 15.58360000 8.28703000 6.60034000
H 14.44560000 7.95250000 7.91802000
H 14.68450000 8.31955000 5.19624000
O 8.08452000 2.25046000 8.92330000
H 6.98969000 2.40649000 7.31254000
H 8.04968000 0.04026400 9.29123000
O 16.27330000 17.17840000 11.88440000
H 15.23660000 16.09780000 12.78920000
H 17.79070000 15.82030000 11.58690000
O 18.05500000 13.17990000 21.32620000
H 17.33400000 12.38770000 22.74910000
H 18.32130000 14.74760000 21.86160000
O 16.33010000 13.10940000 16.36380000
H 17.80480000 12.44990000 15.86050000
H 16.09320000 12.36250000 18.24440000
O 17.40470000 2.80731000 2.55925000
H 18.44830000 4.02840000 3.24472000
H 16.05380000 3.60124000 1.30556000
O 17.53550000 17.86980000 4.71573000
H 16.07760000 18.11270000 5.72408000
H 18.05360000 16.08680000 5.39365000
O 1.88322000 14.99950000 12.45860000
H 2.86441000 15.13680000 14.15170000
H 1.84426000 13.25840000 12.04170000
O 6.19493000 16.07150000 8.45775000
H 5.74084000 14.12060000 7.98199000
H 6.80803000 15.74790000 10.13490000
O 20.18130000 24.50860000 23.07230000
H 18.95310000 24.78600000 21.91330000
H 19.40660000 25.28660000 24.37080000
O 22.10380000 14.88060000 1.63383000
H 20.51950000 15.89370000 1.28361000
H 21.85820000 13.67210000 3.15147000
O 7.68014000 6.10749000 11.85520000
H 6.41514000 5.18049000 12.71540000
H 8.11149000 4.67331000 10.63700000
O 21.94690000 23.51470000 13.19720000
H 23.43390000 22.56070000 12.78900000
H 21.75360000 24.41230000 11.72230000
O 18.14390000 7.31077000 22.82150000
H 18.51040000 5.96914000 21.39860000
H 19.83690000 8.04225000 22.99060000
O 16.97670000 21.04410000 20.91020000
H 16.93160000 21.12960000 19.06550000
H 15.16120000 20.86390000 21.45210000
O 13.51810000 8.76897000 21.80120000
H 14.32030000 10.19530000 22.52080000
H 15.10220000 7.96851000 21.14030000
O 19.41170000 13.21280000 6.38854000
H 20.53910000 13.84540000 7.72638000
H 19.16740000 11.45050000 6.68931000
O 9.38763000 7.37619000 19.25540000
H 10.57310000 7.56976000 20.72960000
H 9.51993000 8.93428000 18.20560000
O 0.27705200 19.93280000 10.23990000
H 0.86035400 18.24680000 10.55880000
H 1.51913000 20.77010000 9.08001000
O 7.13744000 14.71320000 13.38590000
H 7.71228000 13.06830000 12.99500000
H 8.28300000 15.47050000 14.88630000
O 11.99790000 15.11880000 20.13260000
H 12.84710000 16.92550000 20.33110000
H 12.41320000 14.60060000 18.45950000
O 1.70391000 9.62125000 13.33120000
H 1.29920000 8.28377000 12.33510000
H 1.22262000 8.76826000 15.06400000
O 11.99800000 12.66690000 14.48040000
H 13.66520000 11.70390000 14.68160000
H 11.38600000 11.89350000 13.01990000
O 8.54843000 3.64584000 0.97258200
H 8.15065000 3.47411000 -0.79775000
H 7.99825000 2.39238000 1.74059000
O 20.51070000 14.13280000 11.96430000
H 20.01780000 12.18620000 12.47440000
H 21.75970000 14.45020000 12.86560000
O 18.88460000 18.98340000 15.96820000
H 20.33090000 19.38170000 15.35830000
H 18.00090000 18.63160000 14.43130000
O 17.23450000 4.79239000 17.79840000
H 16.03660000 5.07568000 16.36600000
H 18.71740000 4.83546000 16.68080000
O 19.85210000 9.16542000 13.91480000
H 18.79030000 7.92544000 14.33730000
H 20.80270000 8.47591000 12.31060000
    
    &END COORD
  &END SUBSYS
  &DFT
    BASIS_SET_FILE_NAME  BASIS_SET
    POTENTIAL_FILE_NAME  GTH_POTENTIALS
    &QS
      EPS_DEFAULT 1.0E-10
    &END QS
    &MGRID
      NGRIDS 4
      CUTOFF 135
      REL_CUTOFF 115
    &END MGRID
    &XC
      &XC_FUNCTIONAL PADE
      &END XC_FUNCTIONAL
    &END XC
    &SCF
      SCF_GUESS ATOMIC
      EPS_SCF 1.0E-7
      MAX_SCF 300
      &DIAGONALIZATION  ON
        ALGORITHM STANDARD
      &END DIAGONALIZATION
      &MIXING  T
        METHOD BROYDEN_MIXING
        ALPHA 0.4
        NBROYDEN 8
      &END MIXING
    &END SCF
  &END DFT
  &PRINT
    &FORCES ON
    &END FORCES
  &END PRINT
&END FORCE_EVAL
