&GLOBAL
  PROJECT H2O_bulk
  RUN_TYPE ENERGY_FORCE
  PRINT_LEVEL LOW
&END GLOBAL
&FORCE_EVAL
  METHOD Quickstep
  &SUBSYS
    &KIND H
      ELEMENT   H
      BASIS_SET DZVP-GTH-PBE
      POTENTIAL GTH-PBE-q1
    &END KIND
    &KIND O
      ELEMENT   O
      BASIS_SET DZVP-GTH-PBE
      POTENTIAL GTH-PBE-q6
    &END KIND
    &CELL
      A     46.937    0.000000000    0.000000000
      B     0.000000000    44.121    0.000000000
      C     0.000000000    0.000000000    45.182
    &END CELL
    &COORD

O 12.12330000 17.28810000 23.26910000
H 13.84430000 16.72880000 22.96350000
H 11.41410000 17.47920000 21.59720000
O 3.88209000 7.44924000 13.27370000
H 3.98609000 6.20417000 14.62510000
H 4.94061000 6.76751000 11.95540000
O 5.21186000 19.26420000 4.42571000
H 5.71525000 17.80900000 3.44179000
H 4.32941000 20.46480000 3.38506000
O 1.26293000 16.16200000 15.29740000
H 1.35194000 14.38970000 14.87750000
H 0.68619700 16.89490000 13.70670000
O 14.84220000 0.06772700 9.71078000
H 16.25090000 -0.27802300 8.60082000
H 15.49430000 1.18936000 11.00340000
O 3.56658000 19.38420000 22.70390000
H 3.90237000 17.61070000 22.96060000
H 3.31425000 19.82360000 20.87270000
O 3.36776000 0.80667600 1.13298000
H 4.49525000 -3.01985000 -0.14751400
H 1.62937000 0.30138300 1.32457000
O 21.26280000 0.97903100 2.13264000
H 21.78850000 2.43111000 3.08178000
H 19.83980000 1.43643000 1.08456000
O 8.86633000 15.74100000 2.96786000
H 10.50850000 16.11410000 2.19624000
H 9.02174000 15.71060000 4.79906000
O 7.87855000 2.43757000 22.90400000
H 8.88969000 1.28977000 23.90850000
H 6.13765000 2.25204000 23.57540000
O 20.06390000 16.39080000 20.76530000
H 20.45470000 14.84040000 19.91280000
H 18.90540000 16.11320000 22.16890000
O 0.24910000 6.43558000 3.76594000
H 1.81053000 5.61945000 3.26107000
H -0.61192000 7.00708000 2.22856000
O 14.90570000 8.81270000 8.53459000
H 14.36490000 7.07528000 8.68632000
H 15.96880000 9.02760000 9.98832000
O 3.11011000 17.05260000 9.26706000
H 3.11268000 17.71890000 7.56465000
H 4.17325000 15.57370000 9.19214000
O 4.71360000 3.07579000 16.27250000
H 6.14623000 1.95685000 16.07370000
H 3.54002000 2.35416000 15.03770000
O 11.86310000 3.14551000 16.19510000
H 11.17410000 1.63261000 16.93980000
H 11.58260000 4.47947000 17.41180000
O 11.19120000 6.49268000 20.94720000
H 11.04470000 8.04161000 21.92860000
H 10.17280000 5.26172000 21.84610000
O 17.84550000 21.14080000 5.31826000
H 18.22880000 22.46330000 4.20088000
H 18.99900000 19.80270000 4.80513000
O 22.79020000 5.72746000 13.14060000
H 21.94670000 5.52756000 11.49670000
H 24.19990000 6.81899000 12.69810000
O 14.95710000 7.68187000 13.91080000
H 16.63810000 8.23406000 14.45200000
H 15.06840000 5.85554000 13.86910000
O 1.97145000 0.85965500 12.32260000
H 0.45360900 1.86690000 12.38960000
H 2.76563000 1.16972000 10.67320000
O 10.69530000 14.37310000 12.67610000
H 12.15290000 13.74780000 13.56020000
H 9.32046000 14.34570000 13.86480000
O 5.98362000 12.81220000 7.59098000
H 6.76539000 11.23230000 8.14841000
H 7.05320000 14.10520000 8.30138000
O 22.65390000 19.70570000 11.76770000
H 22.81350000 19.38290000 9.97735000
H 23.59760000 21.25310000 11.96760000
O 18.29020000 16.78890000 13.79830000
H 18.67920000 18.56070000 13.78100000
H 19.54350000 15.90910000 12.72870000
O 20.16930000 13.61150000 10.14560000
H 26.80570000 8.68171000 5.12775000
H 19.64630000 15.15870000 9.32894000
O 8.15864000 23.04960000 18.07100000
H 6.68635000 21.96540000 18.19940000
H 7.71655000 24.43160000 19.17520000
O 21.83870000 21.22480000 17.39180000
H 21.54800000 19.95930000 16.12040000
H 20.72350000 20.62090000 18.70930000
O 22.11320000 17.86750000 6.13282000
H 22.06570000 17.81640000 4.30891000
H 22.51890000 16.17560000 6.69330000
O 20.86150000 5.64544000 8.38610000
H 21.64370000 6.25734000 6.85947000
H 19.26700000 4.98692000 7.82646000
O 11.90470000 23.13720000 1.67750000
H 10.95370000 23.27960000 3.22876000
H 11.92180000 21.33240000 1.36067000
O 21.90800000 10.80640000 0.90143700
H 21.48280000 11.07870000 -0.86066100
H 20.41240000 11.15890000 1.93619000
O 12.54820000 4.51818000 7.88778000
H 13.19410000 2.82889000 8.26041000
H 11.83220000 5.02692000 9.52124000
O 6.00562000 12.05260000 15.19740000
H 7.32445000 11.22220000 16.15000000
H 5.18675000 10.63600000 14.35070000
O 5.27576000 0.90473500 8.18397000
H 6.21237000 2.20200000 7.30188000
H 5.60418000 -0.60997300 7.21645000
O 11.52060000 11.25260000 4.97773000
H 12.82870000 10.28440000 5.81354000
H 11.34870000 12.83670000 5.89021000
O 4.81171000 14.38160000 -0.11642000
H 6.41528000 14.51320000 0.75062100
H 4.30857000 12.64450000 -0.21864100
O 14.99700000 14.78600000 17.23270000
H 13.45500000 15.76410000 17.05350000
H 16.06260000 15.13210000 15.76910000
O 21.07760000 19.69640000 1.07983000
H 21.33460000 21.50100000 0.95475300
H 22.07830000 18.92140000 -0.20547000
O 6.79053000 15.42350000 18.94520000
H 5.62089000 14.74760000 20.17800000
H 6.30532000 14.58760000 17.39500000
O 15.59020000 7.13297000 1.86621000
H 14.57090000 8.39473000 1.01889000
H 14.50690000 5.71295000 2.19386000
O 16.96770000 19.75960000 19.60350000
H 15.56890000 19.66010000 18.47070000
H 17.80250000 18.17100000 19.52360000
O 7.63575000 8.19846000 8.42343000
H 7.79166000 7.88587000 6.63387000
H 8.37842000 6.78296000 9.28966000
O 17.88880000 11.40510000 4.19198000
H 18.32990000 11.36780000 5.94515000
H 17.21230000 9.76730000 3.74410000
O 10.95750000 9.51037000 16.74490000
H 12.39630000 8.77090000 15.84270000
H 10.77620000 8.56475000 18.30120000
O 15.77970000 11.61130000 20.73360000
H 15.29540000 12.73370000 19.32920000
H 14.68870000 10.18650000 20.47430000
O 19.74000000 9.64770000 14.34150000
H 20.63880000 8.07888000 13.90170000
H 19.75370000 10.62140000 12.76600000
O 3.61541000 20.48300000 17.89600000
H 3.21324000 18.98120000 16.88270000
H 2.44673000 21.77680000 17.32670000
O 10.57880000 16.07350000 7.83488000
H 11.34730000 17.70860000 7.34512000
H 11.07340000 15.73120000 9.56882000
O 11.44510000 11.14710000 0.03255400
H 11.92410000 12.71120000 -0.74932100
H 11.55860000 11.48830000 1.85098000
O 16.89880000 3.30136000 5.46560000
H 16.25890000 2.65166000 3.90012000
H 16.14560000 4.95197000 5.63660000
O 11.11900000 17.82030000 17.95350000
H 9.64712000 16.80620000 18.43960000
H 10.41220000 19.20320000 17.01590000
O 12.89130000 20.21570000 6.54607000
H 14.57630000 19.94330000 5.85758000
H 13.17770000 21.11850000 8.10623000
O 7.16876000 8.77261000 3.13003000
H 5.81502000 9.63719000 2.26921000
H 8.44880000 9.93720000 3.62215000
O 10.09180000 5.40028000 12.11430000
H 10.52570000 4.29840000 13.54800000
H 10.76010000 7.03099000 12.53310000
O 20.80920000 2.80414000 17.15940000
H 21.21560000 1.11452000 16.60730000
H 22.30300000 3.78451000 16.85540000
O 17.00410000 0.91915500 22.54790000
H 15.44150000 1.56396000 23.18640000
H 16.61510000 -0.68679200 21.76430000
O 16.66660000 2.69787000 14.14150000
H 15.39020000 2.41359000 15.41490000
H 18.27450000 2.79012000 15.06770000
O 8.48938000 4.04324000 4.76556000
H 8.71399000 4.99670000 3.22796000
H 9.84594000 4.54747000 5.89416000
O 20.87370000 11.15550000 19.38750000
H 19.08120000 11.37060000 19.05900000
H 21.44640000 10.21260000 17.94800000
O 3.66153000 5.51199000 21.14210000
H 4.52707000 4.49053000 19.90100000
H 3.01353000 4.42860000 22.47230000
O 16.93350000 16.09530000 1.32344000
H 17.00250000 14.57770000 2.32298000
H 17.75270000 17.44580000 2.22269000
O 3.40774000 9.79589000 23.28740000
H 1.60557000 9.53781000 23.32210000
H 4.07306000 8.44719000 22.20660000
O 0.62421300 12.70070000 5.96070000
H 2.22381000 13.06120000 6.60842000
H 0.85185800 12.48870000 4.13912000
    
    &END COORD
  &END SUBSYS
  &DFT
    BASIS_SET_FILE_NAME  BASIS_SET
    POTENTIAL_FILE_NAME  GTH_POTENTIALS
    &QS
      EPS_DEFAULT 1.0E-10
    &END QS
    &MGRID
      NGRIDS 4
      CUTOFF 135
      REL_CUTOFF 115
    &END MGRID
    &XC
      &XC_FUNCTIONAL PADE
      &END XC_FUNCTIONAL
    &END XC
    &SCF
      SCF_GUESS ATOMIC
      EPS_SCF 1.0E-7
      MAX_SCF 300
      &DIAGONALIZATION  ON
        ALGORITHM STANDARD
      &END DIAGONALIZATION
      &MIXING  T
        METHOD BROYDEN_MIXING
        ALPHA 0.4
        NBROYDEN 8
      &END MIXING
    &END SCF
  &END DFT
  &PRINT
    &FORCES ON
    &END FORCES
  &END PRINT
&END FORCE_EVAL
