&GLOBAL
  PROJECT H2O_bulk
  RUN_TYPE ENERGY_FORCE
  PRINT_LEVEL LOW
&END GLOBAL
&FORCE_EVAL
  METHOD Quickstep
  &SUBSYS
    &KIND H
      ELEMENT   H
      BASIS_SET DZVP-GTH-PBE
      POTENTIAL GTH-PBE-q1
    &END KIND
    &KIND O
      ELEMENT   O
      BASIS_SET DZVP-GTH-PBE
      POTENTIAL GTH-PBE-q6
    &END KIND
    &CELL
      A     46.937    0.000000000    0.000000000
      B     0.000000000    44.121    0.000000000
      C     0.000000000    0.000000000    45.182
    &END CELL
    &COORD

O 6.08491000 5.23915000 22.10190000
H 4.85853000 6.38883000 21.35670000
H 6.54752000 6.03016000 23.67870000
O 17.82830000 3.99478000 2.62692000
H 16.48430000 4.90460000 1.76627000
H 17.55440000 4.30391000 4.40517000
O 20.67290000 17.65120000 23.22930000
H 21.98480000 16.70970000 22.34980000
H 19.28080000 17.79350000 22.04820000
O 18.70920000 22.85430000 1.67928000
H 18.27580000 0.53205100 1.59868000
H 18.68310000 22.20990000 -0.01937900
O 3.81980000 1.89027000 12.31160000
H 3.23750000 1.30651000 10.67110000
H 3.36781000 0.63459000 13.58730000
O 16.72310000 23.01740000 6.54499000
H 16.29230000 0.68296900 6.54428000
H 17.10850000 22.56760000 4.80805000
O 12.00220000 18.51740000 3.59934000
H 13.74580000 17.95390000 3.72151000
H 10.89840000 17.06410000 3.29551000
O -0.12510000 20.67350000 2.69667000
H 0.43679000 22.39670000 2.60185000
H 22.16020000 20.75040000 2.58602000
O 15.59790000 11.41210000 5.31419000
H 16.18200000 12.25960000 3.78627000
H 14.38880000 10.13250000 4.88984000
O 2.04349000 13.38860000 11.71360000
H 3.35389000 14.60680000 11.24810000
H 0.89359600 14.32320000 12.79280000
O 20.52740000 23.73000000 14.04160000
H 19.93520000 1.25463000 14.59430000
H 20.62670000 23.70910000 12.22140000
O 20.33370000 3.60267000 17.39900000
H 19.10860000 4.91444000 17.21410000
H 21.74190000 4.04734000 16.31180000
O 21.62520000 22.27630000 8.75850000
H 21.42320000 20.50640000 8.35112000
H 20.22770000 23.03590000 7.85636000
O 3.65844000 0.65296600 2.60707000
H 5.42289000 1.12442000 2.75944000
H 3.21162000 0.96417300 0.86108500
O 8.65611000 12.58420000 7.40641000
H 8.93012000 10.83060000 7.00460000
H 10.07220000 13.12360000 8.43014000
O 12.15590000 6.99482000 8.35136000
H 11.75360000 5.20936000 8.31402000
H 11.56260000 7.55427000 9.97343000
O 13.67850000 20.25460000 10.00720000
H 12.14430000 19.88490000 9.11709000
H 14.76870000 21.06880000 8.77221000
O 11.63220000 14.48460000 11.46730000
H 12.07670000 12.71880000 11.40230000
H 10.20280000 14.50850000 12.61770000
O 19.47750000 17.09720000 7.16787000
H 18.44800000 16.85760000 8.66518000
H 20.57720000 15.64260000 7.07631000
O 19.61140000 18.57790000 15.39590000
H 19.23480000 18.34350000 17.17870000
H 19.42910000 20.37470000 15.08270000
O 6.99134000 12.49670000 21.99450000
H 5.59881000 11.44450000 21.48790000
H 6.25829000 13.75990000 23.07330000
O 10.50360000 1.92892000 9.34536000
H 9.14708000 2.47878000 10.44190000
H 10.54590000 0.10697400 9.48867000
O 2.60574000 22.85580000 16.20220000
H 2.83365000 -0.20589400 17.68650000
H 0.83143800 22.50070000 16.11350000
O 9.54402000 0.18739200 17.67980000
H 8.32633000 23.16900000 18.45030000
H 8.62175000 1.42568000 16.70250000
O 9.32813000 13.28140000 16.40240000
H 7.89804000 14.37080000 16.68840000
H 10.63060000 13.91350000 17.52060000
O 23.22430000 8.80721000 10.49620000
H -0.11553800 10.20760000 11.38240000
H 23.61630000 7.33630000 11.52570000
O 16.70790000 17.89420000 19.67450000
H 15.42440000 16.57470000 19.64930000
H 15.91710000 19.49540000 19.31840000
O 1.94178000 8.66547000 20.70020000
H 1.57575000 9.86750000 19.39070000
H 0.47430200 8.64449000 21.76660000
O 20.81600000 10.58910000 19.05280000
H 19.77170000 10.90170000 17.57810000
H 21.54170000 12.19730000 19.47800000
O 3.43741000 19.68320000 6.60743000
H 1.86005000 18.74680000 6.58606000
H 3.71303000 19.86620000 4.81324000
O 0.71633300 15.12490000 20.79120000
H 2.14343000 15.93760000 21.59740000
H 0.52153700 15.92040000 19.15320000
O 8.85205000 21.53330000 6.90688000
H 7.15061000 21.03970000 6.54198000
H 9.94948000 20.36810000 6.02303000
O 5.16735000 17.66140000 15.40060000
H 5.66722000 18.87350000 16.65680000
H 6.03949000 18.10140000 13.85650000
O 8.28210000 4.06653000 13.72620000
H 6.50148000 3.89422000 13.32570000
H 8.70873000 5.84700000 13.78940000
O 0.07632000 16.48610000 15.54680000
H 22.75490000 17.58690000 15.10130000
H 1.68800000 17.29440000 15.17650000
O 13.64800000 6.40802000 0.08404700
H 14.53010000 7.53011000 23.02480000
H 12.95380000 5.10417000 23.04580000
O 0.49095100 5.56300000 14.44050000
H 1.48496000 6.97659000 15.04230000
H 1.70972000 4.42040000 13.65460000
O 10.02030000 22.33760000 0.63651500
H 10.75290000 20.81420000 1.37411000
H 9.21896000 23.18840000 2.04107000
O 9.50286000 8.04912000 2.40556000
H 8.99447000 9.70862000 1.86763000
H 11.04390000 7.63748000 1.45105000
O 18.67560000 10.78490000 14.30600000
H 17.84360000 12.23930000 13.52950000
H 20.14820000 10.44720000 13.29210000
O 16.72520000 23.51430000 19.33650000
H 15.06860000 -0.07666000 19.67980000
H 17.63690000 0.68666500 18.44260000
O 4.51231000 9.70479000 15.54260000
H 3.82799000 11.13200000 14.62320000
H 6.30133000 9.83029000 15.32030000
O 13.22980000 13.87770000 20.25450000
H 12.69190000 14.14860000 21.96860000
H 14.24790000 12.35470000 20.32670000
O 10.75310000 8.97171000 13.96380000
H 10.51770000 10.21860000 15.30020000
H 12.43960000 8.30596000 14.28800000
O 16.82980000 16.02010000 2.69637000
H 17.72490000 16.04270000 4.30209000
H 18.12820000 16.50780000 1.49029000
O 23.37270000 11.39030000 3.03398000
H 21.86330000 10.47040000 3.61089000
H 0.56382400 10.16990000 2.77944000
O 0.47832700 15.17980000 6.53685000
H 0.51817100 14.23240000 8.09120000
H 0.24319100 13.95970000 5.17762000
O 3.02381000 1.38050000 21.50800000
H 4.24509000 2.77834000 21.77600000
H 1.46317000 2.23373000 21.13360000
O 8.12523000 15.38400000 2.79801000
H 6.45186000 16.11720000 2.85586000
H 8.37856000 14.49590000 4.37708000
O 22.42210000 5.44222000 23.14760000
H 21.33120000 4.86852000 0.38897500
H 21.66630000 4.87141000 21.59880000
O 2.75224000 7.10398000 4.90920000
H 1.94728000 5.48732000 5.05608000
H 2.31961000 7.96393000 6.44980000
O 15.20850000 7.16112000 15.55650000
H 14.89780000 5.39161000 15.15090000
H 16.52110000 7.80572000 14.45770000
O 1.25638000 1.82855000 7.58239000
H 1.91983000 1.01625000 6.08692000
H 0.27339500 0.51487600 8.38756000
O 12.50050000 2.40880000 21.55770000
H 11.01110000 2.19661000 20.51490000
H 12.16520000 1.46397000 23.07520000
O 6.37483000 21.06790000 21.15240000
H 7.87594000 21.34140000 22.19050000
H 5.38550000 22.59480000 21.36790000
O 3.99472000 17.58340000 0.35021800
H 2.28382000 18.20200000 0.21837500
H 5.01102000 18.88840000 23.65690000
O 19.84880000 8.65395000 6.21968000
H 20.54580000 9.60762000 7.59169000
H 18.10960000 9.20171000 6.06110000
O 8.45507000 2.58574000 3.61013000
H 8.96702000 2.41614000 5.35202000
H 8.36308000 4.38236000 3.27944000
O 15.96840000 9.18836000 20.52500000
H 17.77480000 8.86069000 20.51580000
H 15.39710000 8.73680000 18.84750000
O 6.11848000 16.71450000 10.17920000
H 5.49965000 17.76420000 8.81080000
H 7.16752000 15.41660000 9.41536000
O 16.96100000 4.51453000 8.41889000
H 15.51750000 5.62164000 8.71699000
H 18.44770000 5.52841000 8.69697000
O 11.85220000 19.12500000 15.75000000
H 11.41570000 20.75700000 16.42590000
H 12.52720000 19.48960000 14.09600000
O 17.05760000 15.35950000 11.99000000
H 17.75110000 16.47140000 13.28110000
H 15.28600000 15.80250000 11.88040000
O 14.33160000 2.57614000 13.17550000
H 12.59200000 2.10172000 12.80230000
H 15.16270000 2.50719000 11.56880000
    
    &END COORD
  &END SUBSYS
  &DFT
    BASIS_SET_FILE_NAME  BASIS_SET
    POTENTIAL_FILE_NAME  GTH_POTENTIALS
    &QS
      EPS_DEFAULT 1.0E-10
    &END QS
    &MGRID
      NGRIDS 4
      CUTOFF 135
      REL_CUTOFF 115
    &END MGRID
    &XC
      &XC_FUNCTIONAL PADE
      &END XC_FUNCTIONAL
    &END XC
    &SCF
      SCF_GUESS ATOMIC
      EPS_SCF 1.0E-7
      MAX_SCF 300
      &DIAGONALIZATION  ON
        ALGORITHM STANDARD
      &END DIAGONALIZATION
      &MIXING  T
        METHOD BROYDEN_MIXING
        ALPHA 0.4
        NBROYDEN 8
      &END MIXING
    &END SCF
  &END DFT
  &PRINT
    &FORCES ON
    &END FORCES
  &END PRINT
&END FORCE_EVAL
