&GLOBAL
  PROJECT H2O_bulk
  RUN_TYPE ENERGY_FORCE
  PRINT_LEVEL LOW
&END GLOBAL
&FORCE_EVAL
  METHOD Quickstep
  &SUBSYS
    &KIND H
      ELEMENT   H
      BASIS_SET DZVP-GTH-PBE
      POTENTIAL GTH-PBE-q1
    &END KIND
    &KIND O
      ELEMENT   O
      BASIS_SET DZVP-GTH-PBE
      POTENTIAL GTH-PBE-q6
    &END KIND
    &CELL
      A     46.937    0.000000000    0.000000000
      B     0.000000000    44.121    0.000000000
      C     0.000000000    0.000000000    45.182
    &END CELL
    &COORD

O 4.83027000 1.91224000 2.59184000
H 6.24295000 2.50764000 1.63167000
H 3.46059000 3.15124000 2.60691000
O 15.78030000 9.45207000 5.16462000
H 15.92880000 9.24789000 3.32908000
H 17.48970000 9.51521000 5.85555000
O 14.74460000 1.06154000 22.37850000
H 13.94870000 0.91477600 23.99840000
H 13.91170000 -0.14340800 21.32410000
O 22.56120000 1.81198000 12.26610000
H 21.16330000 1.61928000 11.13750000
H 21.91880000 1.23449000 13.85720000
O 23.12580000 16.82780000 12.87050000
H 24.02850000 15.37200000 13.71120000
H 23.97850000 18.34700000 13.76070000
O 22.66100000 22.80730000 6.52057000
H 21.71070000 24.18660000 5.69645000
H 21.70080000 22.32020000 8.03670000
O 14.27160000 17.80560000 8.05507000
H 13.75220000 16.24760000 6.93796000
H 14.44260000 17.03580000 9.81901000
O 6.28742000 24.09820000 18.17070000
H 6.01782000 22.34060000 18.71410000
H 5.06993000 24.39260000 16.84700000
O 21.05180000 7.56983000 11.52230000
H 22.32990000 8.05327000 10.29230000
H 19.95870000 6.22423000 10.89920000
O 22.84890000 4.66439000 19.68720000
H 21.21470000 4.90627000 20.56650000
H 24.01050000 3.14172000 20.30090000
O 5.34734000 14.86160000 17.49430000
H 6.22605000 14.82490000 15.85460000
H 6.23188000 13.66060000 18.53220000
O 2.85996000 7.91363000 22.22310000
H 4.57168000 7.26716000 21.85690000
H 2.05638000 7.42081000 20.63200000
O 15.45680000 15.05460000 12.96960000
H 14.75720000 15.98900000 14.41840000
H 17.23130000 14.59140000 13.24890000
O 16.39070000 8.19646000 24.28540000
H 16.41260000 7.08592000 22.81510000
H 17.60390000 9.50252000 23.79680000
O 18.49520000 16.18310000 3.12815000
H 19.82560000 17.47860000 3.12495000
H 17.92410000 15.77600000 4.79952000
O 12.48220000 17.94710000 16.43530000
H 11.98010000 17.72040000 18.15940000
H 13.63140000 19.35900000 16.40410000
O 7.16548000 7.67558000 5.43771000
H 7.87898000 7.29438000 3.77290000
H 7.81149000 6.64724000 6.82420000
O 13.17840000 14.51790000 5.49741000
H 11.56840000 13.77950000 5.41194000
H 14.22880000 13.28420000 4.69065000
O 17.86440000 3.60569000 10.48420000
H 16.65720000 3.35286000 11.87570000
H 16.63200000 3.60837000 9.09031000
O 20.51730000 23.53970000 23.00100000
H 20.81570000 22.00500000 23.89670000
H 19.76130000 24.79080000 24.12690000
O 0.51938400 24.33930000 20.15100000
H 1.86248000 23.10180000 20.38730000
H -0.96979000 23.97750000 21.24520000
O 4.75911000 19.54470000 20.25550000
H 4.91341000 19.67780000 22.05710000
H 5.26985000 17.95720000 19.56180000
O 9.64346000 19.62660000 1.52533000
H 10.25650000 20.37300000 3.07136000
H 11.03540000 18.61270000 0.95728500
O 2.36239000 20.38960000 15.35580000
H 3.82057000 19.31700000 15.49880000
H 2.86117000 21.93880000 14.46360000
O 20.48020000 12.94540000 18.16770000
H 19.41740000 11.79380000 17.16620000
H 22.01730000 13.03390000 17.02870000
O 17.71990000 10.40110000 14.53210000
H 16.16500000 9.46034000 14.69760000
H 18.72910000 9.17651000 13.60510000
O 19.38840000 21.02540000 10.12710000
H 18.56550000 19.79570000 11.18010000
H 17.88360000 21.61590000 9.31525000
O 7.39671000 17.22870000 8.52203000
H 5.66624000 17.16550000 7.87528000
H 8.17255000 15.69940000 7.94700000
O 0.87995400 12.61880000 15.25250000
H 0.81231100 10.02290000 15.14800000
H 2.05236000 12.90480000 16.60670000
O 13.58000000 1.34190000 12.40580000
H 12.10610000 2.32183000 11.90110000
H 13.64840000 -0.11586900 11.33210000
O 18.86860000 12.82440000 22.94740000
H 18.52210000 14.46890000 23.65820000
H 19.58760000 13.16890000 21.26350000
O 8.47280000 16.26910000 13.50100000
H 8.09341000 17.15820000 11.91360000
H 9.90489000 17.15820000 14.27770000
O 3.45549000 20.98520000 1.05916000
H 3.15712000 22.66850000 1.64482000
H 5.22391000 20.75120000 1.44418000
O 1.98415000 10.00650000 5.39489000
H 2.00304000 11.84880000 5.22388000
H 3.63820000 9.28932000 5.44068000
O 16.70720000 20.85170000 14.95540000
H 15.74640000 22.23200000 14.34050000
H 18.35780000 21.48940000 15.47390000
O 1.28104000 14.90060000 3.84208000
H -0.17570900 15.64300000 3.09283000
H 1.80469000 15.98550000 5.24635000
O 9.29248000 4.77009000 24.46290000
H 8.55779000 4.29656000 22.78790000
H 10.29430000 6.23554000 23.83100000
O 7.97251000 12.83430000 4.61921000
H 6.86701000 13.03760000 3.16587000
H 7.51852000 11.01660000 4.98782000
O 19.95020000 14.38970000 9.43563000
H 18.64640000 15.61640000 9.74713000
H 21.42130000 15.20650000 10.17370000
O 0.66416700 5.49307000 2.25709000
H -0.21143700 5.61046000 0.67179600
H 1.64796000 7.02136000 2.28436000
O 11.11980000 21.41400000 6.41094000
H 9.30467000 21.23220000 6.48050000
H 11.84990000 20.17770000 7.61981000
O 4.28483000 12.67630000 23.86460000
H 3.64583000 11.12670000 23.05450000
H 2.81290000 13.75470000 24.04400000
O 3.42780000 0.12398400 7.29451000
H 4.24533000 1.00019000 5.92783000
H 1.68424000 -0.13963300 6.76915000
O 10.41090000 8.05079000 16.62460000
H 7.56242000 9.60624000 14.03980000
H 10.37730000 9.54000000 17.67050000
O 8.36725000 11.33510000 21.15490000
H 10.12240000 11.59140000 21.61000000
H 7.28790000 12.43320000 22.13590000
O 22.43390000 19.31560000 2.34746000
H 22.93530000 20.98900000 2.99759000
H 23.96400000 18.86760000 1.40793000
O 20.49420000 2.44919000 3.46059000
H 21.40860000 4.01018000 3.67925000
H 18.78750000 2.73196000 4.18551000
O 3.73802000 0.54785300 12.59270000
H 3.76490000 -0.09504600 10.83960000
H 2.21343000 1.58166000 12.56220000
O 8.63482000 3.27556000 12.29030000
H 7.13358000 2.39064000 12.87750000
H 8.58023000 4.94127000 13.01840000
O 14.66320000 5.64485000 16.07390000
H 14.12130000 4.08583000 15.24950000
H 12.99210000 6.61556000 16.42570000
O 0.84528500 7.95346000 15.33220000
H -1.67766000 4.91597000 17.78000000
H -0.60984200 7.56364000 14.30790000
O 14.98790000 17.69700000 -0.12170700
H 16.28150000 17.16470000 1.15242000
H 15.91280000 17.95760000 -1.70569000
O 11.67120000 11.35410000 10.91740000
H 12.28860000 13.06440000 11.25190000
H 12.91780000 10.25930000 11.66760000
O 10.60990000 21.63940000 20.56490000
H 9.57760000 21.58320000 22.06230000
H 10.26110000 23.26750000 19.83060000
O 16.40990000 4.21715000 5.43925000
H 15.12490000 3.42510000 4.39900000
H 16.23900000 6.03339000 4.94280000
O 18.71390000 18.22400000 19.99840000
H 18.73080000 17.14790000 18.52080000
H 19.84100000 19.56730000 19.52520000
O 7.21513000 9.69564000 12.16500000
H 5.72889000 10.28080000 11.23680000
H 8.83952000 9.93919000 11.27320000
O 13.06280000 14.09050000 21.03890000
H 13.69300000 15.20480000 22.40390000
H 14.39230000 12.84570000 20.95080000
O 2.33399000 17.84910000 7.75817000
H 1.90129000 16.91180000 9.25419000
H 1.58367000 19.51110000 8.00084000
O 7.34517000 5.01359000 19.92190000
H 6.48542000 3.99042000 18.73520000
H 8.61647000 5.93798000 18.82050000
O 13.89640000 24.54840000 3.52929000
H 15.03030000 23.07830000 3.63729000
H 12.68970000 23.88460000 4.84817000
O 17.85520000 4.78246000 20.33140000
H 16.94990000 5.02399000 18.75340000
H 16.88010000 3.52790000 21.28930000
O 21.51650000 22.49350000 16.42150000
H 22.34800000 21.19230000 15.45880000
H 22.80180000 23.07220000 17.62980000
O 21.11310000 9.84742000 6.62788000
H 21.30330000 11.15390000 7.92063000
H 22.75060000 10.02600000 5.96914000
    
    &END COORD
  &END SUBSYS
  &DFT
    BASIS_SET_FILE_NAME  BASIS_SET
    POTENTIAL_FILE_NAME  GTH_POTENTIALS
    &QS
      EPS_DEFAULT 1.0E-10
    &END QS
    &MGRID
      NGRIDS 4
      CUTOFF 135
      REL_CUTOFF 115
    &END MGRID
    &XC
      &XC_FUNCTIONAL PADE
      &END XC_FUNCTIONAL
    &END XC
    &SCF
      SCF_GUESS ATOMIC
      EPS_SCF 1.0E-7
      MAX_SCF 300
      &DIAGONALIZATION  ON
        ALGORITHM STANDARD
      &END DIAGONALIZATION
      &MIXING  T
        METHOD BROYDEN_MIXING
        ALPHA 0.4
        NBROYDEN 8
      &END MIXING
    &END SCF
  &END DFT
  &PRINT
    &FORCES ON
    &END FORCES
  &END PRINT
&END FORCE_EVAL
