&GLOBAL
  PROJECT H2O_bulk
  RUN_TYPE ENERGY_FORCE
  PRINT_LEVEL LOW
&END GLOBAL
&FORCE_EVAL
  METHOD Quickstep
  &SUBSYS
    &KIND H
      ELEMENT   H
      BASIS_SET DZVP-GTH-PBE
      POTENTIAL GTH-PBE-q1
    &END KIND
    &KIND O
      ELEMENT   O
      BASIS_SET DZVP-GTH-PBE
      POTENTIAL GTH-PBE-q6
    &END KIND
    &CELL
      A     46.937    0.000000000    0.000000000
      B     0.000000000    44.121    0.000000000
      C     0.000000000    0.000000000    45.182
    &END CELL
    &COORD

O 9.05700000 1.45498000 5.53543000
H 9.91350000 0.49236500 4.25617000
H 9.40611000 0.77691400 7.16411000
O 5.61241000 1.32422000 22.04590000
H 5.32640000 0.10871900 23.25710000
H 3.97009000 1.88030000 21.50190000
O 10.20950000 22.52840000 19.67020000
H 8.39828000 22.61050000 19.28280000
H 11.30960000 23.42860000 18.72380000
O 17.69900000 16.53330000 20.85480000
H 17.42030000 14.64090000 21.40890000
H 16.03530000 17.27620000 21.25960000
O 16.53730000 5.79837000 15.40240000
H 18.13750000 6.44969000 14.73290000
H 15.04570000 6.78675000 14.78250000
O 23.59930000 15.59220000 1.43402000
H 0.86171400 16.86340000 1.51735000
H 23.04070000 15.38750000 3.39058000
O 1.79238000 12.65470000 18.13130000
H 0.68616900 12.38080000 16.92380000
H 3.16970000 13.02520000 17.36940000
O 3.59080000 10.62650000 11.08740000
H 5.24987000 10.19080000 11.71230000
H 3.64543000 11.18740000 9.34219000
O 11.33590000 6.64888000 4.21204000
H 11.44470000 5.83042000 2.77956000
H 10.83930000 5.51190000 5.38775000
O 15.37850000 12.13200000 9.17336000
H 15.80720000 13.57930000 9.41803000
H 13.73120000 12.14740000 8.08384000
O 0.68118600 4.01250000 20.88380000
H 23.60220000 4.83635000 21.80870000
H -0.18156400 2.71931000 19.87630000
O 20.89750000 4.67799000 8.55669000
H 20.41460000 2.93991000 8.72041000
H 20.34130000 5.09791000 6.93952000
O 17.06890000 23.18400000 22.02660000
H 16.51590000 0.85333700 21.40120000
H 18.97620000 23.49080000 21.57500000
O 22.65370000 19.92600000 22.01380000
H 22.10760000 19.43430000 20.19570000
H 22.96190000 18.21820000 22.72470000
O 12.52930000 23.54490000 0.98282000
H 11.44350000 23.76530000 23.46450000
H 14.20780000 23.58210000 0.67251900
O 4.70419000 0.29932000 9.30600000
H 4.56921000 22.79650000 8.06113000
H 2.98617000 1.08433000 9.47676000
O 3.51215000 6.58243000 4.03531000
H 4.94395000 6.74988000 5.21311000
H 2.84140000 4.95835000 4.31309000
O 14.73930000 19.43910000 13.76280000
H 13.63050000 20.34240000 14.25650000
H 14.72560000 19.43610000 11.34250000
O 7.58082000 14.02860000 22.58280000
H 6.56668000 13.51040000 24.14240000
H 6.65233000 13.95070000 20.86130000
O 18.15970000 10.98410000 19.74820000
H 19.57140000 10.69150000 18.74980000
H 16.61750000 10.03020000 19.25580000
O 22.97790000 18.17700000 16.13100000
H -0.72063400 16.61180000 16.98630000
H 21.04330000 18.43300000 16.02400000
O 6.39886000 7.80416000 20.87760000
H 6.21757000 9.08006000 22.03710000
H 5.64437000 6.55397000 21.46090000
O 13.09760000 0.12924700 15.80870000
H 14.43120000 0.93139100 16.78200000
H 11.77680000 1.37903000 15.73340000
O 6.86869000 5.56345000 8.67240000
H 6.80147000 6.97553000 9.74243000
H 6.09194000 4.16068000 9.45582000
O 18.60910000 0.06092900 17.10380000
H 17.64190000 1.59861000 17.34400000
H 20.32220000 1.04674000 16.59090000
O 15.03500000 0.92389500 7.14698000
H 13.65450000 24.21350000 7.02879000
H 15.31590000 1.76419000 5.71432000
O 22.66900000 13.77620000 6.73074000
H 21.72320000 12.13340000 7.01639000
H 22.13470000 15.44670000 7.24566000
O 8.88670000 21.66900000 10.93700000
H 7.22155000 22.64230000 11.04450000
H 10.08320000 22.54430000 12.30920000
O 2.64595000 5.75461000 16.05160000
H 1.30390000 6.56641000 15.08030000
H 1.91351000 5.01439000 17.65720000
O 14.79380000 3.78674000 20.03980000
H 15.42970000 5.44281000 19.02200000
H 13.58600000 4.25625000 21.27900000
O 10.10990000 5.38847000 23.14220000
H 8.91424000 6.92402000 22.50040000
H 8.94368000 3.93131000 22.84540000
O 13.69290000 6.48294000 10.26860000
H 13.71200000 5.29381000 8.94352000
H 13.82010000 8.15773000 9.32577000
O 14.03860000 20.31620000 8.12692000
H 15.09640000 18.79540000 7.65557000
H 12.85600000 19.89350000 7.22946000
O 4.34385000 18.66350000 1.67099000
H 4.89887000 17.60100000 2.87831000
H 3.63792000 20.05970000 2.58059000
O 4.06841000 11.83910000 5.89733000
H 3.97385000 10.11160000 5.04689000
H 2.49023000 12.23490000 5.33895000
O 2.89643000 17.98150000 7.24164000
H 2.35625000 17.60340000 8.96646000
H 4.41443000 17.22410000 7.00021000
O 12.13430000 11.10010000 20.42740000
H 13.01370000 11.87030000 21.50470000
H 10.68800000 11.48640000 20.88570000
O 23.49460000 16.35730000 11.45650000
H 22.92690000 16.92610000 12.93330000
H -0.73033000 14.35840000 11.61810000
O 11.34800000 11.67910000 15.11000000
H 11.84900000 12.07900000 16.89390000
H 10.47960000 13.15300000 14.65260000
O 17.95170000 11.12140000 14.30940000
H 16.51740000 10.74960000 12.98880000
H 18.09560000 12.88350000 14.42770000
O 12.67590000 17.68740000 20.79510000
H 11.83090000 16.20380000 21.63990000
H 11.44540000 19.04600000 20.56420000
O 20.82580000 22.83240000 2.55784000
H 20.78450000 22.15130000 0.79389200
H 21.33420000 20.73470000 4.92080000
O 2.29834000 11.11150000 22.91160000
H 2.19788000 11.78200000 21.22720000
H 1.35922000 12.08980000 0.09081500
O 23.75160000 9.97414000 14.27120000
H 22.18760000 10.29720000 14.54700000
H 0.25972800 10.47400000 12.41700000
O 18.99230000 23.68450000 11.23180000
H 18.41040000 -1.14279000 12.74730000
H 17.51040000 23.96200000 10.26480000
O 9.48606000 17.72550000 13.37120000
H 11.22550000 18.12870000 13.05950000
H 8.55573000 19.18310000 12.15790000
O -0.26370300 0.21374800 16.45290000
H -0.68688200 0.66422400 14.98440000
H -0.59811500 22.15270000 16.41210000
O 6.43410000 15.30360000 17.23970000
H 7.04604000 15.91100000 15.61910000
H 5.67056000 16.76750000 17.93020000
O 7.71682000 8.57154000 13.69410000
H 9.26707000 9.60337000 13.93470000
H 7.01666000 8.47945000 15.21190000
O 22.72470000 8.01976000 23.75020000
H 0.47618000 8.05941000 23.49410000
H 21.96530000 9.22423000 22.59440000
O 9.96207000 4.30003000 14.59010000
H 10.28690000 5.44312000 12.32670000
H 8.31805000 5.10212000 15.10260000
O 4.33789000 18.94780000 19.82810000
H 2.74500000 18.86790000 20.61940000
H 5.26522000 18.65620000 21.03730000
O 17.11300000 4.14444000 2.42985000
H 18.23100000 3.65349000 0.93569800
H 16.24370000 5.51749000 2.00597000
O 19.40460000 9.43763000 5.75031000
H 19.01350000 9.65546000 4.05998000
H 19.03980000 10.93020000 6.53018000
O 23.77690000 2.64378000 3.99994000
H 22.85610000 3.24953000 5.41704000
H 22.05210000 0.83995700 2.74677000
O 10.30100000 18.58300000 2.10465000
H 11.04510000 19.73150000 1.19353000
H 9.18907000 19.28570000 3.23929000
O 14.22850000 14.15540000 1.80172000
H 13.10880000 12.65420000 3.34427000
H 12.83770000 15.08030000 1.58785000
O 11.62050000 11.38540000 5.86009000
H 10.45800000 12.56720000 6.64277000
H 11.17570000 9.51616000 5.56876000
O 21.80810000 20.54590000 6.64044000
H 22.14810000 21.88000000 7.64273000
H 23.19660000 19.46360000 6.54652000
O 0.75447700 2.55321000 11.98020000
H 24.19970000 4.14999000 10.78380000
H 2.08459000 3.16655000 12.60630000
O 17.86580000 16.37100000 16.40860000
H 17.96210000 15.70790000 18.14380000
H 16.25620000 16.78230000 16.39080000
O 17.56880000 16.89370000 6.37149000
H 17.02180000 15.83930000 5.08275000
H 18.70400000 18.01970000 5.79571000
O 4.36194000 23.31920000 4.11193000
H 5.80781000 0.00079100 4.52167000
H 3.07314000 0.64047400 4.53460000
O 8.97001000 16.35200000 8.10405000
H 8.79070000 17.74880000 8.99479000
H 10.32200000 15.72860000 11.45830000
    
    &END COORD
  &END SUBSYS
  &DFT
    BASIS_SET_FILE_NAME  BASIS_SET
    POTENTIAL_FILE_NAME  GTH_POTENTIALS
    &QS
      EPS_DEFAULT 1.0E-10
    &END QS
    &MGRID
      NGRIDS 4
      CUTOFF 135
      REL_CUTOFF 115
    &END MGRID
    &XC
      &XC_FUNCTIONAL PADE
      &END XC_FUNCTIONAL
    &END XC
    &SCF
      SCF_GUESS ATOMIC
      EPS_SCF 1.0E-7
      MAX_SCF 300
      &DIAGONALIZATION  ON
        ALGORITHM STANDARD
      &END DIAGONALIZATION
      &MIXING  T
        METHOD BROYDEN_MIXING
        ALPHA 0.4
        NBROYDEN 8
      &END MIXING
    &END SCF
  &END DFT
  &PRINT
    &FORCES ON
    &END FORCES
  &END PRINT
&END FORCE_EVAL
