&GLOBAL
  PROJECT H2O_bulk
  RUN_TYPE ENERGY_FORCE
  PRINT_LEVEL LOW
&END GLOBAL
&FORCE_EVAL
  METHOD Quickstep
  &SUBSYS
    &KIND H
      ELEMENT   H
      BASIS_SET DZVP-GTH-PBE
      POTENTIAL GTH-PBE-q1
    &END KIND
    &KIND O
      ELEMENT   O
      BASIS_SET DZVP-GTH-PBE
      POTENTIAL GTH-PBE-q6
    &END KIND
    &CELL
      A     46.937    0.000000000    0.000000000
      B     0.000000000    44.121    0.000000000
      C     0.000000000    0.000000000    45.182
    &END CELL
    &COORD

O 4.13376000 13.05830000 5.32136000
H 4.95316000 13.06870000 3.92049000
H 2.39194000 13.62670000 4.73470000
O 20.25100000 20.49710000 15.59190000
H 20.39760000 22.02680000 14.30300000
H 20.12620000 21.37960000 17.16410000
O 9.73085000 17.79590000 12.64390000
H 10.42500000 19.08860000 14.15070000
H 9.27709000 16.43010000 13.71470000
O 15.30710000 2.33369000 6.59940000
H 16.01430000 0.72850600 5.76367000
H 15.71650000 2.08901000 8.38474000
O 11.32610000 17.36380000 21.36240000
H 11.08640000 16.04000000 19.87950000
H 9.45617000 17.82430000 21.71650000
O 1.66423000 4.22796000 16.06580000
H 2.16082000 5.05338000 14.44280000
H 2.74209000 2.82123000 16.35990000
O 10.89790000 3.36022000 20.22800000
H 12.16430000 3.33018000 17.28990000
H 12.17110000 3.06345000 21.20280000
O 8.16589000 12.71020000 13.39600000
H 6.78345000 13.16700000 12.23810000
H 7.33717000 11.63520000 14.63390000
O 6.23914000 16.99690000 22.56580000
H 5.56983000 16.27310000 21.14160000
H 7.32509000 16.01910000 0.27979700
O 21.53450000 19.10410000 6.45611000
H 22.86100000 18.37390000 5.86340000
H 20.91440000 17.91990000 7.61487000
O 16.07000000 13.81100000 10.19280000
H 15.11970000 15.00610000 9.57320000
H 15.34000000 13.58360000 11.93420000
O 5.26298000 19.46180000 10.12150000
H 5.84641000 20.91120000 9.57490000
H 6.74913000 18.46190000 10.13780000
O 18.30050000 21.48050000 3.89090000
H 18.93360000 22.74040000 2.74096000
H 19.64840000 20.75320000 4.99594000
O 23.31040000 14.05210000 2.45202000
H 21.74690000 13.49860000 3.06288000
H 23.91350000 12.48820000 1.45740000
O 9.17970000 0.62766300 14.89890000
H 7.64017000 0.65926100 15.74610000
H 10.02980000 22.97210000 15.72420000
O 13.44070000 6.29817000 4.18846000
H 13.86200000 5.07540000 5.56468000
H 12.18800000 7.73457000 4.83962000
O 22.90920000 0.63365000 1.00280000
H 22.62060000 1.80860000 22.93980000
H 23.66980000 1.71382000 2.27703000
O 14.68190000 3.50828000 0.32395200
H 13.13420000 2.77911000 1.06243000
H 15.14340000 2.24260000 -0.92169400
O 23.26790000 3.68726000 8.78319000
H 1.15696000 2.73002000 8.41203000
H 22.18740000 3.52751000 7.11492000
O 10.28450000 9.70417000 21.66600000
H 11.06330000 8.51902000 22.66280000
H 11.69190000 10.86750000 21.65920000
O 23.40010000 9.68722000 22.73210000
H 0.94281500 8.19198000 22.30050000
H 21.49330000 9.77205000 22.48880000
O 15.52700000 11.37370000 22.59120000
H 16.79850000 11.59920000 21.32810000
H 16.50470000 11.24370000 0.88778000
O 22.28020000 9.70041000 14.07180000
H 0.63966900 9.22459000 13.56560000
H 22.42430000 10.31700000 15.96050000
O 20.74380000 1.62127000 19.22910000
H 20.58730000 3.40548000 18.77670000
H 19.34170000 1.29703000 20.45370000
O 13.45920000 17.62350000 9.31049000
H 11.89380000 17.65600000 10.69060000
H 14.49070000 19.20140000 9.62018000
O 3.49549000 7.53147000 5.25889000
H 2.62144000 9.00930000 6.15979000
H 5.15608000 7.27531000 6.09972000
O 11.57360000 10.70120000 7.80638000
H 12.94880000 10.90460000 9.00013000
H 10.22980000 11.35680000 8.50605000
O 5.54612000 2.04176000 23.28380000
H 4.81984000 0.33705400 23.16430000
H 7.34763000 1.71781000 23.46090000
O 22.00680000 5.01339000 4.01160000
H 20.30780000 5.30308000 3.30883000
H -0.39071300 6.39724000 4.31351000
O 12.64820000 20.53750000 17.50460000
H 11.87200000 19.38530000 19.48460000
H 13.76430000 19.13340000 16.99040000
O 4.45793000 0.45110400 17.24030000
H 3.43004000 23.94660000 18.73110000
H 3.68913000 22.42630000 16.14810000
O 4.31067000 19.21740000 4.89787000
H 4.60771000 18.21120000 6.02230000
H 5.85911000 19.23440000 3.82192000
O 6.12979000 10.39900000 17.78010000
H 5.91272000 8.70327000 18.75800000
H 7.78573000 11.14150000 18.32970000
O 19.45170000 17.97710000 22.75170000
H 20.54160000 18.26160000 24.13740000
H 17.99040000 17.02370000 0.31854500
O 15.92420000 17.57860000 14.77060000
H 16.36580000 15.83980000 15.18250000
H 17.65640000 18.31870000 14.42330000
O 18.70260000 12.92650000 5.32206000
H 17.50610000 14.20760000 4.04057000
H 18.15610000 13.41830000 7.11607000
O 12.95300000 19.44360000 4.28361000
H 13.22950000 18.48560000 5.94755000
H 14.77510000 20.30720000 3.96657000
O 17.04220000 9.43970000 15.41410000
H 16.03540000 8.54853000 13.97110000
H 18.56820000 8.67836000 15.22570000
O 3.91292000 13.51230000 10.73100000
H 4.35499000 14.53920000 9.24633000
H 4.37804000 11.78420000 10.19320000
O 9.21614000 13.55670000 3.05388000
H 9.68067000 12.61660000 4.38886000
H 10.23700000 12.83360000 1.59285000
O 16.05180000 23.15470000 11.27900000
H 17.35850000 22.34950000 11.63000000
H 14.78950000 -0.09172000 13.52790000
O 18.15420000 13.31240000 19.28010000
H 19.73530000 13.46370000 18.37750000
H 17.58940000 15.06880000 19.22870000
O 22.76250000 12.35430000 18.35210000
H 23.03930000 11.63770000 20.18110000
H 0.69017100 13.60590000 18.04310000
O 12.55290000 13.40030000 17.39220000
H 12.27010000 11.98310000 18.01160000
H 14.36540000 13.32800000 17.14060000
O 3.38905000 6.67368000 21.31010000
H 2.60448000 5.33855000 20.15340000
H 4.62347000 5.84767000 22.27380000
O 19.86740000 4.46295000 14.40130000
H 19.96960000 6.21893000 12.14550000
H 21.59560000 3.77226000 14.59860000
O 18.82410000 6.86323000 20.15800000
H 17.39370000 6.85388000 21.64290000
H 17.89870000 7.27680000 18.77800000
O 17.49540000 7.26531000 10.44040000
H 16.68210000 6.15767000 8.95122000
H 18.62550000 8.49356000 9.38552000
O 8.72049000 7.05160000 11.20630000
H 9.62222000 7.82403000 12.60930000
H 9.61504000 5.68089000 10.77840000
O 16.72570000 22.45310000 21.45900000
H 17.55070000 20.77440000 21.71670000
H 15.37910000 21.98130000 20.28380000
O 17.97990000 8.51266000 3.54469000
H 18.12180000 10.29100000 3.28688000
H 16.30060000 8.50029000 4.51670000
O 12.18150000 7.40025000 15.32610000
H 13.81980000 6.67921000 15.88710000
H 10.97080000 6.23908000 15.89910000
O 2.90609000 19.18730000 14.32040000
H 3.54100000 18.88830000 12.40170000
H 1.32079000 19.10460000 14.39250000
O 14.94490000 2.83669000 16.01670000
H 14.62640000 2.12664000 17.50090000
H 16.92340000 3.77495000 16.24020000
O 4.34406000 0.51577100 7.50177000
H 4.04629000 22.79080000 6.07979000
H 5.51691000 2.31864000 6.66093000
O 21.77150000 22.87880000 11.02890000
H 21.60790000 0.73762300 9.92884000
H 23.27150000 21.89450000 11.15290000
O 9.41169000 22.56820000 2.22441000
H 11.03850000 22.47350000 3.00222000
H 9.16701000 21.34100000 0.77334400
O 10.19640000 2.14284000 9.27738000
H 11.94190000 2.20662000 8.89934000
H 10.17210000 1.23306000 10.98970000
O 15.94780000 15.64620000 2.24376000
H 11.14540000 18.70230000 3.10609000
H 14.89560000 14.67070000 1.26767000
O 22.65760000 15.95610000 10.83120000
H 21.41400000 15.29120000 10.19900000
H 0.89038400 14.22530000 10.62870000
O 3.88182000 15.39880000 18.40670000
H 4.18668000 15.52160000 16.89850000
H 3.79377000 13.51330000 18.79680000
O 7.24248000 3.89969000 4.47296000
H 8.43572000 2.65548000 5.02097000
H 6.60674000 3.14490000 3.09805000
O 3.05459000 21.09490000 21.76750000
H 3.12437000 19.28040000 22.10920000
H 2.03583000 21.92890000 23.07290000
O 3.22672000 7.85796000 11.21040000
H 2.50523000 6.64151000 10.41580000
H 5.07042000 7.81793000 10.51500000
    
    &END COORD
  &END SUBSYS
  &DFT
    BASIS_SET_FILE_NAME  BASIS_SET
    POTENTIAL_FILE_NAME  GTH_POTENTIALS
    &QS
      EPS_DEFAULT 1.0E-10
    &END QS
    &MGRID
      NGRIDS 4
      CUTOFF 135
      REL_CUTOFF 115
    &END MGRID
    &XC
      &XC_FUNCTIONAL PADE
      &END XC_FUNCTIONAL
    &END XC
    &SCF
      SCF_GUESS ATOMIC
      EPS_SCF 1.0E-7
      MAX_SCF 300
      &DIAGONALIZATION  ON
        ALGORITHM STANDARD
      &END DIAGONALIZATION
      &MIXING  T
        METHOD BROYDEN_MIXING
        ALPHA 0.4
        NBROYDEN 8
      &END MIXING
    &END SCF
  &END DFT
  &PRINT
    &FORCES ON
    &END FORCES
  &END PRINT
&END FORCE_EVAL
