&GLOBAL
  PROJECT H2O_bulk
  RUN_TYPE ENERGY_FORCE
  PRINT_LEVEL LOW
&END GLOBAL
&FORCE_EVAL
  METHOD Quickstep
  &SUBSYS
    &KIND H
      ELEMENT   H
      BASIS_SET DZVP-GTH-PBE
      POTENTIAL GTH-PBE-q1
    &END KIND
    &KIND O
      ELEMENT   O
      BASIS_SET DZVP-GTH-PBE
      POTENTIAL GTH-PBE-q6
    &END KIND
    &CELL
      A     46.937    0.000000000    0.000000000
      B     0.000000000    44.121    0.000000000
      C     0.000000000    0.000000000    45.182
    &END CELL
    &COORD

O 19.83950000 16.29440000 8.24767000
H 21.99570000 16.09890000 7.41994000
H 18.85860000 15.33650000 7.08206000
O 12.31100000 0.02942000 18.96600000
H 13.67160000 0.93886700 18.18180000
H 12.22330000 -0.01083400 20.75520000
O 17.08530000 18.53070000 17.82620000
H 18.04140000 19.28440000 16.35100000
H 15.29560000 19.02720000 17.51490000
O 5.00907000 18.79260000 12.00050000
H 4.80366000 17.32110000 11.26530000
H 4.16082000 18.72160000 13.64930000
O 22.36050000 8.12303000 6.18099000
H 21.75440000 6.77079000 7.73562000
H 21.73290000 9.59569000 6.34984000
O 3.66731000 22.26450000 19.26600000
H 4.81599000 23.26040000 18.20760000
H 2.71601000 23.31660000 20.18240000
O 3.91694000 12.41980000 9.41742000
H 5.72660000 12.86740000 10.11060000
H 2.93337000 11.64400000 10.49510000
O 12.59460000 0.46683500 0.10763900
H 14.23840000 1.26742000 0.10871200
H 11.44380000 0.85230500 1.45595000
O 23.79630000 1.01263000 16.73310000
H 24.64810000 4.42680000 15.68430000
H 0.45589900 0.34119400 15.62660000
O 0.67923000 22.66900000 1.68933000
H 0.91821800 22.21020000 3.23347000
H 0.87758700 0.10589200 1.25388000
O 18.67760000 20.95230000 11.98840000
H 17.68910000 21.74680000 10.61550000
H 18.88250000 19.23030000 11.04700000
O 8.17882000 10.36570000 3.73002000
H 9.74895000 9.70427000 3.56165000
H 7.91304000 9.74535000 5.64166000
O 19.20300000 20.83400000 22.67610000
H 18.87380000 20.26860000 20.84530000
H 21.05140000 20.41870000 23.00250000
O 7.83705000 6.33622000 15.47150000
H 8.47892000 7.17712000 14.08020000
H 7.01507000 7.39940000 17.08850000
O 21.83480000 3.53257000 8.68371000
H 21.41360000 2.14052000 7.57771000
H 20.38310000 3.75064000 9.77395000
O 10.15420000 8.01177000 22.31740000
H 8.67581000 7.18545000 23.30850000
H 11.51840000 8.32284000 23.71220000
O 13.47130000 14.46680000 8.06807000
H 13.51730000 16.14720000 7.74602000
H 14.84250000 14.30620000 8.93538000
O 9.68436000 2.26310000 9.51560000
H 8.92015000 0.63111600 9.93985000
H 8.38568000 3.01481000 8.51339000
O 20.34330000 22.36200000 4.60535000
H 20.59140000 20.85630000 5.53553000
H 20.52060000 22.34090000 2.73089000
O 7.10013000 11.98910000 20.69140000
H 8.75458000 11.24720000 21.76930000
H 8.00776000 13.34210000 19.62840000
O 8.59895000 14.22690000 15.91370000
H 9.04826000 16.32370000 15.87040000
H 7.00078000 14.36400000 15.64720000
O 9.09708000 11.43480000 8.85931000
H 9.75662000 10.09040000 9.71104000
H 10.42720000 12.52260000 9.26961000
O 6.51120000 5.40005000 1.90632000
H 7.61148000 4.19586000 2.75377000
H 6.33603000 6.72684000 3.06698000
O 5.05684000 4.50243000 11.43940000
H 4.15773000 5.40936000 10.18420000
H 5.11180000 5.41076000 12.80520000
O 15.07280000 12.78350000 0.65593500
H 15.17990000 11.96540000 23.43580000
H 15.85720000 14.23210000 0.32036200
O 9.11762000 22.48210000 12.12790000
H 7.87924000 23.66470000 13.48950000
H 7.86131000 21.11160000 12.34700000
O -0.34469500 6.66433000 14.81150000
H 23.91560000 7.82930000 13.19860000
H 0.34266500 8.17365000 15.59790000
O 11.81670000 6.67730000 11.57890000
H 12.11550000 6.55213000 13.42930000
H 11.33070000 4.52572000 11.34400000
O 17.00650000 1.95814000 18.14390000
H 17.92480000 1.51114000 19.80530000
H 17.84790000 3.11888000 16.85090000
O 22.33160000 8.56673000 22.32450000
H 21.20570000 9.38124000 21.04910000
H 23.32010000 7.29504000 21.48700000
O 21.08390000 21.44690000 16.26490000
H 20.99910000 23.09270000 16.83880000
H 20.14000000 21.74600000 14.85360000
O 3.35117000 7.08305000 7.41058000
H 3.28667000 8.85113000 7.19235000
H 1.55140000 6.95406000 6.73305000
O 13.39770000 6.40251000 16.63710000
H 14.16990000 5.02697000 17.13950000
H 10.79750000 6.01380000 17.04620000
O 1.69191000 18.53780000 16.48060000
H 1.90038000 19.80350000 17.66470000
H 0.03781700 18.73830000 16.06190000
O 19.88460000 12.82590000 4.18576000
H 18.91680000 12.36210000 2.63479000
H 21.49470000 12.80240000 3.35531000
O 8.80464000 1.15627000 4.14316000
H 9.80640000 1.27405000 5.61418000
H 8.01044000 23.82590000 4.57356000
O 23.67370000 18.17370000 23.69180000
H 23.73250000 16.71190000 0.22096100
H 0.23398600 19.78960000 -0.21428000
O 16.74310000 7.76808000 10.35610000
H 16.45500000 9.55539000 9.76127000
H 15.27650000 6.86531000 10.46940000
O 17.22010000 9.94678000 19.97390000
H 17.48540000 11.20970000 18.74160000
H 16.69620000 8.45166000 18.97330000
O 19.30120000 4.55816000 13.97650000
H 18.13790000 5.56519000 13.20040000
H 20.83080000 5.04030000 13.45380000
O 19.03130000 12.66160000 11.21970000
H 18.38890000 13.03360000 13.01490000
H 18.44220000 14.59310000 10.52640000
O 18.84820000 13.93610000 16.44250000
H 18.19010000 15.54310000 16.85210000
H 22.17250000 13.48750000 18.03840000
O 9.25217000 17.32160000 0.66170200
H 7.44869000 16.63200000 0.39594700
H 10.10500000 15.92770000 1.19777000
O 2.40332000 21.78300000 6.78671000
H 3.86143000 21.67550000 7.67992000
H 1.63104000 22.91730000 8.14343000
O 18.60950000 1.47106000 23.90360000
H 20.27670000 1.52697000 0.38828500
H 18.81120000 -0.35159000 23.34000000
O 11.62660000 19.75360000 16.54890000
H 11.44900000 20.74570000 14.83880000
H 12.77010000 21.11600000 17.19970000
O 0.70232600 16.42600000 6.82327000
H 0.95448200 18.19360000 7.46694000
H 1.48693000 15.09540000 7.70017000
O 2.42615000 -0.45473800 12.08900000
H 3.46142000 22.45160000 11.98210000
H 3.47716000 0.89036600 11.63490000
O 0.33228300 14.40180000 2.47927000
H 0.37622300 15.32380000 4.07342000
H 2.09832000 14.29470000 2.14336000
O 5.24285000 13.78280000 1.06610000
H 5.99106000 12.29930000 1.72251000
H 5.49233000 13.39360000 23.76980000
O 15.88420000 4.03900000 3.93406000
H 18.32780000 4.67790000 5.82370000
H 17.18990000 3.70745000 2.25812000
O 21.95050000 4.91290000 2.03837000
H 22.30980000 5.70449000 3.50905000
H 21.64340000 5.88837000 0.59751700
O 7.73808000 20.42080000 5.10224000
H 9.33718000 20.19140000 5.75775000
H 8.07632000 18.57480000 3.98420000
O 14.58760000 18.79130000 1.42885000
H 15.64720000 20.11530000 0.64462200
H 13.04540000 20.27630000 0.94387100
O 23.61190000 10.51240000 11.79150000
H 22.00000000 11.24000000 11.38820000
H 0.02420300 11.85830000 12.57500000
O 23.88040000 13.76020000 20.35060000
H 22.98100000 12.25780000 20.91610000
H -0.01284500 14.97750000 21.39470000
O 13.35590000 8.43438000 2.90396000
H 14.39960000 9.78153000 2.72216000
H 14.04010000 6.80521000 3.25450000
O 1.45547000 4.71677000 20.40610000
H 1.85543000 4.49535000 22.16030000
H 1.19229000 3.00205000 19.79680000
O 13.20780000 19.99620000 6.77350000
H 14.75870000 20.95170000 7.82452000
H 13.80340000 20.38550000 4.99180000
O 1.86766000 3.37059000 0.79866300
H 0.45786100 4.68044000 0.90150400
H 3.61253000 3.57370000 1.07669000
O 7.84918000 0.94659700 17.01570000
H 7.50967000 3.42443000 16.74150000
H 9.01159000 0.34193600 18.41440000
O 4.29458000 8.37736000 18.26360000
H 5.26508000 9.30710000 19.70170000
H 3.44403000 7.34948000 19.29880000
O 2.39431000 12.83620000 15.34420000
H 1.98299000 11.67010000 16.63120000
H 2.28118000 14.42390000 16.10630000
O 15.70430000 -0.52964000 8.34350000
H 17.30280000 23.50200000 6.97746000
H 15.22810000 1.23797000 7.27651000
    
    &END COORD
  &END SUBSYS
  &DFT
    BASIS_SET_FILE_NAME  BASIS_SET
    POTENTIAL_FILE_NAME  GTH_POTENTIALS
    &QS
      EPS_DEFAULT 1.0E-10
    &END QS
    &MGRID
      NGRIDS 4
      CUTOFF 135
      REL_CUTOFF 115
    &END MGRID
    &XC
      &XC_FUNCTIONAL PADE
      &END XC_FUNCTIONAL
    &END XC
    &SCF
      SCF_GUESS ATOMIC
      EPS_SCF 1.0E-7
      MAX_SCF 300
      &DIAGONALIZATION  ON
        ALGORITHM STANDARD
      &END DIAGONALIZATION
      &MIXING  T
        METHOD BROYDEN_MIXING
        ALPHA 0.4
        NBROYDEN 8
      &END MIXING
    &END SCF
  &END DFT
  &PRINT
    &FORCES ON
    &END FORCES
  &END PRINT
&END FORCE_EVAL
