&GLOBAL
  PROJECT H2O_bulk
  RUN_TYPE ENERGY_FORCE
  PRINT_LEVEL LOW
&END GLOBAL
&FORCE_EVAL
  METHOD Quickstep
  &SUBSYS
    &KIND H
      ELEMENT   H
      BASIS_SET DZVP-GTH-PBE
      POTENTIAL GTH-PBE-q1
    &END KIND
    &KIND O
      ELEMENT   O
      BASIS_SET DZVP-GTH-PBE
      POTENTIAL GTH-PBE-q6
    &END KIND
    &CELL
      A     46.937    0.000000000    0.000000000
      B     0.000000000    44.121    0.000000000
      C     0.000000000    0.000000000    45.182
    &END CELL
    &COORD

O 3.05071000 20.81130000 10.23430000
H 1.86833000 19.29340000 9.94246000
H 2.52608000 22.04780000 8.99123000
O 12.80720000 21.35440000 5.48499000
H 10.97860000 22.01820000 5.11208000
H 13.88010000 22.06760000 4.28131000
O 15.53010000 24.03150000 1.62159000
H 16.97510000 24.84360000 2.11194000
H 14.31450000 25.39440000 1.80053000
O 12.26110000 16.07130000 11.85860000
H 10.94070000 15.29900000 12.84620000
H 12.57140000 17.75450000 12.83860000
O 15.17540000 15.82550000 21.49050000
H 16.63060000 15.74380000 22.46930000
H 13.98910000 16.18310000 22.78620000
O 23.65120000 2.57829000 7.09101000
H 23.83520000 2.15828000 8.92121000
H 24.38000000 4.14298000 7.07064000
O 3.18045000 20.53340000 24.81520000
H 3.24235000 18.01040000 25.40990000
H 1.16145000 20.47080000 24.96520000
O 7.12047000 1.17209000 16.39260000
H 6.98799000 -0.67775200 15.87620000
H 6.26055000 1.94858000 14.97770000
O 18.96870000 16.11140000 1.98367000
H 19.87630000 14.12140000 3.71529000
H 17.47160000 16.32430000 2.56009000
O 15.17870000 24.93700000 21.22570000
H 15.19180000 23.23490000 20.48870000
H 15.24750000 24.66300000 23.00000000
O 18.63240000 23.59050000 16.27620000
H 17.97390000 24.43490000 14.90870000
H 20.08090000 24.58040000 16.35900000
O 7.78605000 23.07260000 5.09962000
H 8.14390000 22.40190000 3.45494000
H 6.56192000 21.87250000 5.48340000
O 10.20740000 21.42970000 23.10860000
H 9.72785000 19.60050000 23.14970000
H 12.14410000 21.27450000 22.41630000
O 1.64100000 7.09437000 5.11929000
H 3.00004000 6.50138000 3.81337000
H 0.42162500 8.00537000 4.38846000
O 5.84565000 20.94500000 14.89430000
H 4.36918000 20.87670000 16.01050000
H 4.67973000 21.18800000 13.22230000
O 19.16490000 15.42540000 14.75290000
H 18.58560000 15.28340000 13.05260000
H 18.26250000 16.93990000 15.27430000
O 13.94260000 9.99166000 19.35270000
H 15.51180000 11.17920000 19.22610000
H 13.11600000 9.71201000 17.91030000
O 0.75588300 0.98179800 11.73920000
H 5.12236000 2.10936000 11.95580000
H 1.33580000 0.00468900 10.16710000
O 5.72142000 3.73318000 12.30750000
H 6.95224000 3.47080000 11.01790000
H 4.29610000 4.90049000 11.34640000
O 2.51021000 7.12519000 9.91138000
H 4.48338000 8.38217000 9.87800000
H 1.82723000 7.62847000 8.28390000
O 1.42870000 10.51320000 16.06120000
H 0.28023000 8.92758000 16.10610000
H 0.17470300 11.57670000 17.09740000
O 14.55190000 20.59650000 13.81660000
H 14.41250000 21.84700000 12.59300000
H 15.87430000 21.44270000 15.07000000
O 15.56550000 2.77611000 7.65673000
H 14.26510000 3.94654000 7.33950000
H 14.71900000 1.47510000 8.83675000
O 11.28540000 3.29315000 20.45090000
H 10.27760000 2.65840000 19.00340000
H 12.11100000 1.73281000 20.78570000
O 11.33510000 6.56307000 6.83914000
H 10.45610000 6.72409000 5.26475000
H 12.14940000 8.25315000 7.09624000
O 14.14950000 6.16813000 23.02850000
H 12.80760000 7.32038000 22.81750000
H 13.19400000 4.98255000 22.11290000
O 1.93909000 23.07910000 5.57780000
H 2.76332000 24.53710000 6.10247000
H 1.22721000 23.51140000 4.02896000
O 13.15820000 23.55580000 10.31870000
H 11.47240000 24.30060000 9.80078000
H 13.25670000 22.49950000 9.06832000
O 20.87830000 10.39780000 3.89478000
H 20.79690000 10.10350000 5.65588000
H 19.49030000 9.52216000 2.91976000
O 0.79142200 12.74570000 3.98778000
H -0.36943200 12.67440000 2.77581000
H 1.81526000 11.20690000 3.89944000
O 19.30540000 9.94189000 18.25900000
H 18.54110000 11.13500000 17.05820000
H 18.45770000 8.23127000 18.35840000
O 17.22260000 14.44570000 9.91768000
H 15.42200000 14.84420000 9.96574000
H 17.95500000 15.34660000 8.34962000
O 11.09820000 9.71936000 14.84760000
H 11.34440000 8.12752000 13.88870000
H 10.20580000 10.88060000 13.82390000
O 8.37815000 3.62596000 1.01019000
H 9.47869000 4.62479000 0.13648200
H 7.45033000 2.45403000 -0.32825200
O 2.40950000 15.46820000 23.71740000
H 1.23551000 15.29260000 22.43190000
H 2.34625000 13.81550000 24.36340000
O 5.21538000 7.72319000 1.43597000
H 6.62195000 6.35937000 1.25056000
H 4.71667000 7.82096000 -0.24703100
O 1.28285000 20.72170000 16.76290000
H 0.06191000 19.48170000 15.78860000
H 0.56216500 22.56610000 16.21220000
O 22.58900000 12.27020000 21.07080000
H 21.41200000 10.90390000 20.19750000
H 21.49360000 13.92980000 20.75130000
O 8.33623000 16.21830000 16.85700000
H 8.91498000 16.45940000 18.49810000
H 8.65966000 17.59040000 15.93850000
O 3.85120000 3.01672000 20.35010000
H 4.41452000 1.46728000 21.34520000
H 5.35479000 2.30830000 18.77480000
O 6.27847000 24.58060000 23.33670000
H 4.63450000 23.54890000 23.49390000
H 8.51348000 22.85610000 23.73360000
O 23.80890000 5.70995000 16.25570000
H 24.03760000 5.74864000 14.31870000
H 21.89350000 6.17391000 16.45090000
O 14.32960000 16.35800000 4.33255000
H 13.66120000 18.03140000 5.20960000
H 12.82100000 15.49630000 3.99311000
O 4.26942000 8.34240000 21.80040000
H 3.15119000 9.47421000 21.98130000
H 3.71877000 7.26198000 20.41940000
O 7.74459000 16.53350000 23.34770000
H 6.23396000 15.36900000 23.49240000
H 9.18926000 15.43120000 22.83190000
O 16.05350000 2.79834000 14.29230000
H 14.91760000 3.43323000 13.28300000
H 17.58770000 3.08033000 13.09760000
O 10.07920000 12.17600000 22.77080000
H 8.53067000 11.49060000 23.90890000
H 10.87970000 10.72380000 22.03000000
O 18.65490000 4.45985000 18.89630000
H 17.47560000 3.35069000 19.64200000
H 18.10280000 3.92400000 17.11540000
O 6.37259000 11.80590000 14.58720000
H 6.75587000 13.50910000 15.39530000
H 5.60625000 11.03290000 15.74680000
O -0.41418100 2.43310000 22.39740000
H -0.10938300 0.78020600 23.14300000
H 1.16162000 2.83929000 21.50300000
O 16.86280000 7.39754000 11.87860000
H 17.06110000 7.69677000 9.80587000
H 17.54370000 8.96276000 12.42260000
O 21.33150000 10.35340000 8.78705000
H 20.33090000 11.47690000 9.71173000
H 22.85050000 10.75290000 9.34017000
O 21.27320000 17.22660000 22.09650000
H 21.54650000 18.89210000 21.72650000
H 21.22100000 17.30530000 24.09650000
O 23.54240000 13.23680000 12.75880000
H 24.46810000 12.30850000 13.85070000
H 23.52250000 15.07110000 13.25100000
O 22.97830000 22.49180000 1.45567000
H 21.57680000 21.64100000 0.67210300
H 22.31620000 24.33160000 1.38099000
O 14.02490000 20.26390000 19.29720000
H 13.24220000 19.27370000 17.58230000
H 15.11420000 19.12080000 20.23570000
O 10.41320000 11.28160000 9.81936000
H 11.20960000 13.24260000 9.73580000
H 8.66213000 11.32760000 9.12108000
O 9.68389000 2.46271000 7.75675000
H 10.20200000 4.20208000 7.21618000
H 8.94963000 1.47667000 6.40662000
O 21.12930000 22.61670000 20.82500000
H 21.71380000 21.95720000 19.17850000
H 21.52150000 24.48030000 20.78520000
O 19.41780000 1.46258000 4.63721000
H 18.85320000 3.20694000 5.04678000
H 21.30000000 1.53060000 5.29328000
O 5.25310000 12.01070000 9.46433000
H 5.49597000 11.55930000 11.29430000
H 3.78159000 12.66730000 9.45606000
O 23.67570000 0.39255700 16.70420000
H 24.10040000 0.86119300 18.36580000
H 24.45310000 1.33059000 15.48210000
O 17.87710000 5.92964000 1.95965000
H 16.46030000 4.96633000 0.97144400
H 18.95330000 4.59083000 2.49111000
O 1.62465000 16.01350000 8.50560000
H 1.75496000 15.42840000 7.05574000
H 1.04419000 14.26510000 9.66233000
    
    &END COORD
  &END SUBSYS
  &DFT
    BASIS_SET_FILE_NAME  BASIS_SET
    POTENTIAL_FILE_NAME  GTH_POTENTIALS
    &QS
      EPS_DEFAULT 1.0E-10
    &END QS
    &MGRID
      NGRIDS 4
      CUTOFF 135
      REL_CUTOFF 115
    &END MGRID
    &XC
      &XC_FUNCTIONAL PADE
      &END XC_FUNCTIONAL
    &END XC
    &SCF
      SCF_GUESS ATOMIC
      EPS_SCF 1.0E-7
      MAX_SCF 300
      &DIAGONALIZATION  ON
        ALGORITHM STANDARD
      &END DIAGONALIZATION
      &MIXING  T
        METHOD BROYDEN_MIXING
        ALPHA 0.4
        NBROYDEN 8
      &END MIXING
    &END SCF
  &END DFT
  &PRINT
    &FORCES ON
    &END FORCES
  &END PRINT
&END FORCE_EVAL
