&GLOBAL
  PROJECT H2O_bulk
  RUN_TYPE ENERGY_FORCE
  PRINT_LEVEL LOW
&END GLOBAL
&FORCE_EVAL
  METHOD Quickstep
  &SUBSYS
    &KIND H
      ELEMENT   H
      BASIS_SET DZVP-GTH-PBE
      POTENTIAL GTH-PBE-q1
    &END KIND
    &KIND O
      ELEMENT   O
      BASIS_SET DZVP-GTH-PBE
      POTENTIAL GTH-PBE-q6
    &END KIND
    &CELL
      A     46.937    0.000000000    0.000000000
      B     0.000000000    44.121    0.000000000
      C     0.000000000    0.000000000    45.182
    &END CELL
    &COORD

O 9.12519000 9.92202000 21.32720000
H 7.42251000 10.49000000 22.11610000
H 8.92316000 8.70152000 20.00140000
O 2.94790000 13.69580000 19.29740000
H 4.05527000 14.55340000 20.52830000
H 3.22070000 14.52310000 17.88930000
O 10.96260000 16.43980000 16.54340000
H 11.10540000 14.61470000 15.59440000
H 11.38670000 16.16980000 18.42220000
O 3.91898000 1.35906000 4.79069000
H 4.95328000 -0.28922600 4.48562000
H 2.52833000 0.95902500 5.82050000
O 13.26650000 14.07100000 21.23350000
H 14.43970000 12.94800000 20.22260000
H 11.90310000 13.26920000 21.35730000
O 22.82260000 14.27340000 23.34520000
H 0.15782100 13.64630000 1.21422000
H 0.15521200 14.19070000 21.94970000
O 5.95151000 17.83360000 16.76250000
H 6.14923000 19.29140000 18.68430000
H 7.12802000 16.62640000 17.01670000
O 18.18640000 8.70880000 3.61776000
H 16.87660000 8.16038000 2.43356000
H 17.40830000 9.37006000 5.15314000
O 6.27529000 16.12500000 22.64180000
H 5.65483000 17.15180000 24.11850000
H 8.07898000 16.78410000 22.40040000
O 16.10940000 16.80640000 13.70480000
H 15.39650000 17.39560000 15.20290000
H 14.68350000 15.57130000 12.91140000
O 21.05760000 21.47640000 12.74580000
H 22.41900000 20.70590000 13.30550000
H 19.56800000 20.31920000 13.11240000
O 4.83020000 19.68190000 9.20680000
H 6.58145000 19.08130000 9.99920000
H 4.80144000 18.60020000 7.44424000
O 5.26762000 18.39440000 3.96611000
H 6.49348000 19.86410000 4.01078000
H 6.24479000 17.01340000 4.14647000
O 20.83020000 6.92562000 21.98190000
H 21.17060000 6.86794000 -0.07654700
H 19.71670000 8.14044000 21.72120000
O 8.33325000 6.76712000 16.98650000
H 8.93246000 5.03893000 16.82050000
H 6.50572000 6.55298000 16.28730000
O 12.46680000 10.73930000 8.25308000
H 11.48610000 11.24920000 6.87911000
H 14.13230000 11.48760000 8.37564000
O 6.12890000 9.20003000 1.64461000
H 7.56767000 8.49538000 2.32582000
H 5.04269000 7.96892000 1.60147000
O 21.61040000 14.94440000 7.60894000
H 21.90130000 15.09930000 9.10724000
H 21.04720000 16.44390000 6.60680000
O 7.75879000 1.62524000 9.84676000
H 7.01650000 1.60192000 11.68300000
H 6.30037000 0.89851100 8.43588000
O 12.77840000 9.22779000 1.68456000
H 13.57050000 10.55590000 2.73772000
H 11.57400000 9.94172000 0.52066700
O 20.95060000 2.27265000 18.76120000
H 20.71750000 3.49571000 19.97390000
H 19.22210000 2.38763000 17.79310000
O 14.41360000 8.89425000 15.72040000
H 13.26560000 7.60591000 16.25560000
H 15.82440000 8.01365000 15.48300000
O 19.86820000 15.22850000 16.83080000
H 18.47120000 15.68050000 15.59510000
H 21.16280000 14.96620000 16.08070000
O 12.20590000 22.82440000 11.56880000
H 10.86480000 23.40970000 10.43470000
H 13.43040000 23.25110000 10.69180000
O 11.49330000 18.05190000 6.41355000
H 13.11300000 18.33750000 6.68961000
H 10.64310000 17.92920000 8.92088000
O 3.29670000 6.62183000 7.03677000
H 0.82915600 7.32599000 7.07622000
H 3.18370000 5.14233000 6.29985000
O 11.87510000 4.70719000 8.37971000
H 10.38030000 4.04702000 9.03115000
H 11.58220000 6.86210000 8.40982000
O 9.44675000 5.12794000 3.08159000
H 10.62970000 6.55175000 2.67287000
H 10.09090000 4.75375000 4.98975000
O 20.45760000 4.04442000 6.45257000
H 19.17810000 4.88673000 5.39051000
H 20.22920000 2.35013000 5.84785000
O 9.67411000 17.77560000 10.92820000
H 8.03576000 14.93210000 12.68320000
H 10.72800000 18.31100000 12.31660000
O 20.59680000 22.99740000 3.71052000
H 21.93890000 22.87290000 4.42384000
H 20.96530000 22.48480000 1.85800000
O 5.40783000 13.48000000 4.88755000
H 4.80911000 12.56750000 3.42478000
H 3.88161000 13.52710000 5.69154000
O 16.39060000 5.04327000 12.15660000
H 16.21200000 3.20964000 13.05240000
H 15.19260000 5.14760000 11.22650000
O 17.58970000 18.87210000 6.19982000
H 18.01040000 20.57590000 5.71407000
H 17.07710000 17.83350000 4.61749000
O 18.01310000 17.79190000 21.13010000
H 19.32510000 17.20100000 19.79980000
H 17.30260000 16.31860000 21.83100000
O 0.24920900 22.51300000 8.13852000
H 22.57350000 22.02290000 9.25720000
H 1.71524000 21.91690000 8.88647000
O 14.36280000 22.09630000 1.38699000
H 15.00030000 21.17750000 2.82159000
H 15.77360000 23.01590000 0.51650000
O 17.55550000 11.17830000 8.17223000
H 18.88020000 12.21900000 7.86990000
H 18.20760000 9.45981000 8.82618000
O 2.20420000 15.40590000 11.74970000
H 2.83445000 17.13880000 11.28400000
H 3.79704000 14.30660000 11.57140000
O 9.62763000 1.69700000 23.42200000
H 10.55080000 0.89971100 22.25500000
H 10.00870000 3.20610000 0.40008100
O 14.83390000 3.35190000 21.56050000
H 14.88640000 1.78662000 20.74420000
H 13.06710000 3.43800000 21.64880000
O 17.73620000 14.12570000 2.15900000
H 17.42290000 12.42110000 1.95317000
H 18.74130000 14.27580000 0.95670200
O 17.32680000 10.77640000 19.60880000
H 18.69710000 11.94280000 19.14980000
H 16.56420000 10.08540000 18.17600000
O 13.06990000 13.09000000 13.43740000
H 10.01490000 10.94200000 10.60220000
H 13.94420000 11.67500000 13.89590000
O 23.29220000 9.48743000 18.37140000
H 23.22820000 8.30568000 19.94380000
H 1.08127000 10.76720000 19.06460000
O 17.46050000 0.74449600 15.45760000
H 18.43660000 24.53490000 13.81990000
H 16.96510000 22.60460000 15.68970000
O 3.76513000 2.62346000 20.87520000
H 3.88660000 4.12732000 20.03630000
H 5.41967000 2.36636000 21.56710000
O 3.04771000 3.50861000 11.62350000
H 3.13024000 4.93553000 10.48060000
H 2.17640000 2.23757000 10.64510000
O 10.61260000 13.22530000 4.33795000
H 8.94278000 13.78960000 4.88246000
H 11.74600000 14.87400000 4.80371000
O 10.59380000 2.20547000 17.32450000
H 9.24037000 0.83939000 17.01160000
H 11.99080000 1.96459000 16.17120000
O 1.45931000 5.34496000 1.61115000
H 2.61154000 4.73241000 22.79920000
H 2.21645000 4.09695000 2.62646000
O 7.17128000 12.58420000 13.81890000
H 7.29540000 11.14180000 12.66380000
H 7.60622000 11.91280000 15.28200000
O 3.55806000 6.31640000 15.97120000
H 2.16583000 7.23383000 16.66800000
H 2.92436000 5.22226000 14.93690000
O 6.33417000 0.09945300 15.01900000
H 5.49714000 22.27980000 15.09140000
H 5.42019000 1.15539000 15.97800000
O 8.73803000 22.49010000 3.83734000
H 9.00407000 23.39230000 2.19213000
H 10.24260000 22.84610000 4.65030000
O 1.03439000 22.38350000 16.37410000
H 22.79250000 22.57630000 16.33790000
H 1.54384000 22.30140000 18.27670000
O 14.24990000 20.72330000 18.16020000
H 15.31840000 20.21380000 19.42460000
H 12.70160000 19.69570000 18.53850000
O 15.61900000 0.92605900 7.11409000
H 14.72270000 2.42015000 7.59090000
H 17.18610000 1.37120000 7.81570000
O 11.15980000 18.25730000 23.02110000
H 12.72140000 17.16150000 22.78530000
H 11.88080000 19.63110000 0.57511800
O 21.29310000 9.00332000 11.78820000
H 20.46030000 7.43967000 11.64700000
H 22.53680000 8.65792000 12.84650000
O 0.65334900 11.07090000 4.45283000
H 24.11840000 9.22976000 3.91920000
H 22.90900000 11.35350000 5.89167000
O 2.72313000 20.68620000 21.24560000
H 3.23528000 21.82240000 22.00270000
H 1.04001000 20.37560000 22.26650000
O 20.94680000 21.51600000 22.16300000
H 19.45490000 20.36080000 21.56510000
H 20.90070000 22.91270000 21.03810000
O 7.68663000 7.96575000 11.04630000
H 6.42624000 7.34251000 10.06500000
H 8.71265000 6.74060000 11.52170000
    
    &END COORD
  &END SUBSYS
  &DFT
    BASIS_SET_FILE_NAME  BASIS_SET
    POTENTIAL_FILE_NAME  GTH_POTENTIALS
    &QS
      EPS_DEFAULT 1.0E-10
    &END QS
    &MGRID
      NGRIDS 4
      CUTOFF 135
      REL_CUTOFF 115
    &END MGRID
    &XC
      &XC_FUNCTIONAL PADE
      &END XC_FUNCTIONAL
    &END XC
    &SCF
      SCF_GUESS ATOMIC
      EPS_SCF 1.0E-7
      MAX_SCF 300
      &DIAGONALIZATION  ON
        ALGORITHM STANDARD
      &END DIAGONALIZATION
      &MIXING  T
        METHOD BROYDEN_MIXING
        ALPHA 0.4
        NBROYDEN 8
      &END MIXING
    &END SCF
  &END DFT
  &PRINT
    &FORCES ON
    &END FORCES
  &END PRINT
&END FORCE_EVAL
