&GLOBAL
  PROJECT H2O_bulk
  RUN_TYPE ENERGY_FORCE
  PRINT_LEVEL LOW
&END GLOBAL
&FORCE_EVAL
  METHOD Quickstep
  &SUBSYS
    &KIND H
      ELEMENT   H
      BASIS_SET DZVP-GTH-PBE
      POTENTIAL GTH-PBE-q1
    &END KIND
    &KIND O
      ELEMENT   O
      BASIS_SET DZVP-GTH-PBE
      POTENTIAL GTH-PBE-q6
    &END KIND
    &CELL
      A     46.937    0.000000000    0.000000000
      B     0.000000000    44.121    0.000000000
      C     0.000000000    0.000000000    45.182
    &END CELL
    &COORD

O 11.15220000 14.34070000 4.42704000
H 10.35410000 13.30890000 5.75009000
H 9.38697000 14.84180000 4.05724000
O 13.83310000 24.21960000 23.05200000
H 13.10740000 24.23420000 24.68490000
H 12.89260000 22.87740000 22.32600000
O 1.41645000 2.92875000 7.06072000
H 1.40018000 2.39356000 8.92349000
H 2.21138000 1.28345000 6.32003000
O 0.94100100 16.56430000 20.71910000
H -0.85795700 16.76540000 20.92500000
H 0.86942200 14.98250000 19.86360000
O 9.78940000 13.40020000 18.83670000
H 11.18660000 13.01340000 19.94380000
H 10.22550000 12.38910000 17.23080000
O 22.47650000 5.80088000 14.96930000
H 22.55770000 6.72560000 16.46670000
H 23.32010000 4.28311000 15.19700000
O 1.22877000 9.69566000 2.54027000
H 2.31820000 11.10970000 2.13605000
H -0.55827400 10.18730000 2.17596000
O 12.39020000 3.05291000 7.53515000
H 13.01190000 4.65969000 7.54564000
H 10.57140000 3.16389000 8.03355000
O 9.78768000 12.92910000 10.94720000
H 9.62550000 14.08890000 12.44850000
H 10.86610000 11.85700000 11.98440000
O 16.78440000 20.37000000 7.44039000
H 17.64510000 18.79000000 7.73540000
H 14.94070000 19.96610000 7.05571000
O 12.95160000 5.34757000 13.23960000
H 12.78690000 3.38573000 12.49050000
H 14.77760000 5.78597000 13.09930000
O 0.38159100 8.01163000 7.44559000
H 0.73202200 8.29482000 5.67678000
H 0.80431200 6.03482000 6.98989000
O 18.75860000 14.22810000 5.12297000
H 17.86280000 12.87930000 5.95990000
H 20.21080000 13.73970000 3.97949000
O 2.70217000 22.20970000 2.48306000
H 4.39918000 22.62550000 2.96672000
H 3.06926000 22.39370000 0.72871900
O 15.77030000 18.38480000 17.16700000
H 14.90670000 18.75110000 15.61680000
H 16.12600000 16.69360000 16.68260000
O 6.06476000 7.95591000 5.85335000
H 6.33109000 7.17278000 4.27756000
H 4.40027000 8.50746000 6.01738000
O 12.66920000 18.84020000 12.92920000
H 11.12290000 18.35040000 13.80630000
H 12.53230000 18.91890000 11.13480000
O 17.95870000 20.67600000 23.72000000
H 16.71070000 19.26460000 24.65960000
H 16.85330000 21.66710000 22.58640000
O 11.59850000 18.98210000 6.86017000
H 9.98929000 18.89400000 7.93100000
H 11.26400000 17.31030000 6.01480000
O 6.24963000 15.79130000 2.43170000
H 3.48638000 17.37610000 2.15176000
H 6.03979000 14.20980000 1.77172000
O 2.43873000 18.30360000 10.28960000
H 2.05077000 17.79860000 11.98310000
H 0.65156700 18.07380000 9.45979000
O 21.87090000 17.84780000 7.46161000
H 21.20230000 16.48150000 6.48877000
H 22.30570000 19.46750000 6.95676000
O 10.86000000 9.64564000 7.23603000
H 9.27419000 8.89565000 6.95708000
H 10.43880000 10.81510000 8.59043000
O 12.85370000 24.22080000 11.81120000
H 12.96380000 24.20340000 10.08480000
H 12.43090000 22.79480000 12.74550000
O 4.66581000 5.11992000 16.35750000
H 6.13951000 4.12741000 16.14600000
H 4.85644000 6.43734000 14.87350000
O 8.18093000 6.96031000 0.57990000
H 7.23789000 5.55857000 -0.44924600
H 9.79640000 7.12829000 1.24094000
O 23.71230000 10.44080000 11.94400000
H 23.95980000 9.62022000 10.43250000
H 22.49090000 7.94450000 14.01760000
O 8.64971000 16.41010000 14.84170000
H 6.82875000 16.63820000 14.98540000
H 9.38801000 15.75460000 16.64360000
O 16.23990000 8.67466000 16.69980000
H 15.89590000 6.88640000 17.07370000
H 16.71080000 8.44402000 14.94900000
O 4.93473000 8.98544000 12.55730000
H 6.18465000 10.52840000 12.34010000
H 3.31684000 9.47456000 11.96390000
O 6.88622000 0.73480900 5.06025000
H 8.58917000 0.12974100 4.06014000
H 7.24035000 2.01091000 6.19446000
O 23.56720000 13.57900000 16.83100000
H 23.83640000 11.72920000 17.63600000
H 22.88760000 13.25280000 15.30130000
O 18.82830000 7.59115000 22.91450000
H 18.31750000 6.61121000 24.34740000
H 18.36970000 6.85226000 21.26090000
O 22.69040000 9.05275000 19.34700000
H 21.27050000 9.49515000 20.46440000
H 23.57740000 7.80150000 20.26540000
O 21.29850000 21.47830000 3.55471000
H 23.11410000 21.47730000 2.99594000
H 20.52070000 21.41860000 1.87345000
O 19.74700000 15.78760000 22.09800000
H 19.37300000 17.40320000 22.79600000
H 18.90000000 15.53400000 20.44300000
O 16.39770000 3.69275000 19.75020000
H 16.64920000 1.76941000 19.39090000
H 14.89590000 4.00499000 20.80090000
O 7.71044000 3.02598000 9.45325000
H 7.07084000 4.37608000 10.47610000
H 6.50144000 1.28787000 9.76143000
O 13.21330000 8.47001000 2.21930000
H 12.25380000 9.25705000 3.48169000
H 14.78990000 7.40579000 2.56313000
O 2.18428000 0.11381400 21.54170000
H 0.52029900 -0.57058500 20.94860000
H 2.45688000 1.73257000 20.69020000
O 0.81701600 1.25745000 12.42550000
H 2.13575000 0.06846600 11.84370000
H -1.14356000 0.30640100 12.66450000
O 5.27441000 11.39840000 23.33100000
H 5.66355000 11.97760000 21.74060000
H 6.10936000 9.36191000 23.53940000
O 15.24530000 17.03630000 2.41219000
H 16.38320000 16.10180000 3.56153000
H 13.67910000 16.41380000 2.81403000
O 2.69629000 5.39245000 20.86700000
H 4.21579000 4.87835000 19.45910000
H 4.00043000 6.03084000 21.80760000
O 12.36050000 23.22460000 3.68666000
H 12.84280000 23.71800000 5.37574000
H 12.50940000 21.48980000 3.87828000
O 20.92770000 21.76950000 11.99120000
H 20.02550000 22.00860000 10.28160000
H 22.19150000 20.39650000 11.75900000
O 5.13207000 19.97690000 19.81110000
H 3.69164000 18.96600000 20.74130000
H 4.09296000 21.42380000 20.25860000
O 17.81190000 5.94027000 12.61170000
H 17.90910000 5.78040000 10.73620000
H 19.57510000 6.00446000 13.08280000
O 17.14790000 13.14140000 18.66330000
H 15.96540000 13.12780000 19.89820000
H 17.58760000 11.44350000 18.15610000
O 11.70660000 10.13410000 15.31130000
H 13.39080000 9.78714000 15.94920000
H 11.63930000 8.49091000 14.64550000
O 22.05430000 21.84120000 18.34730000
H 22.34830000 22.03290000 16.18880000
H 20.32660000 22.40480000 18.72060000
O 5.06015000 22.83010000 9.50695000
H 5.97945000 22.82620000 7.95494000
H 4.23228000 21.13790000 9.31027000
O 7.66888000 2.92129000 21.85130000
H 7.73345000 1.31268000 22.55010000
H 9.06171000 2.74237000 20.62150000
O 10.69160000 2.62431000 17.82100000
H 11.04130000 0.66920900 18.14480000
H 11.79080000 3.63006000 16.71510000
O 16.30590000 4.30484000 2.18371000
H 17.17690000 3.38289000 3.32129000
H 15.64450000 3.19233000 0.42413700
O 11.24050000 21.30740000 19.32960000
H 11.89270000 19.76350000 18.38250000
H 9.32870000 20.87860000 19.46250000
O 18.73310000 5.91757000 7.42635000
H 20.54310000 6.65079000 7.35552000
H 18.50530000 3.99260000 6.71025000
O 20.87600000 11.79000000 1.21674000
H 20.78910000 13.30850000 0.27104900
H 20.07630000 10.33360000 0.55793800
O 18.45570000 1.42966000 5.36775000
H 18.37750000 -0.29188500 6.24003000
H 19.76110000 0.50599200 4.31606000
O 6.73592000 17.26380000 7.92746000
H 6.20655000 17.30560000 6.06113000
H 5.40574000 16.26270000 9.13468000
O 17.14210000 23.38900000 17.99650000
H 17.35790000 23.89590000 16.02390000
H 16.26850000 21.49590000 18.10730000
O 13.49340000 11.72210000 22.07570000
H 14.46440000 12.18300000 23.53380000
H 13.13800000 10.21670000 23.05780000
O 3.70385000 17.45230000 15.34740000
H 2.34134000 16.20170000 15.88080000
H 4.44198000 18.37380000 16.97440000
O 16.69650000 10.00830000 6.18800000
H 17.73590000 8.60492000 6.95706000
H 14.45080000 9.13844000 5.89313000
    
    &END COORD
  &END SUBSYS
  &DFT
    BASIS_SET_FILE_NAME  BASIS_SET
    POTENTIAL_FILE_NAME  GTH_POTENTIALS
    &QS
      EPS_DEFAULT 1.0E-10
    &END QS
    &MGRID
      NGRIDS 4
      CUTOFF 135
      REL_CUTOFF 115
    &END MGRID
    &XC
      &XC_FUNCTIONAL PADE
      &END XC_FUNCTIONAL
    &END XC
    &SCF
      SCF_GUESS ATOMIC
      EPS_SCF 1.0E-7
      MAX_SCF 300
      &DIAGONALIZATION  ON
        ALGORITHM STANDARD
      &END DIAGONALIZATION
      &MIXING  T
        METHOD BROYDEN_MIXING
        ALPHA 0.4
        NBROYDEN 8
      &END MIXING
    &END SCF
  &END DFT
  &PRINT
    &FORCES ON
    &END FORCES
  &END PRINT
&END FORCE_EVAL
