&GLOBAL
  PROJECT H2O_bulk
  RUN_TYPE ENERGY_FORCE
  PRINT_LEVEL LOW
&END GLOBAL
&FORCE_EVAL
  METHOD Quickstep
  &SUBSYS
    &KIND H
      ELEMENT   H
      BASIS_SET DZVP-GTH-PBE
      POTENTIAL GTH-PBE-q1
    &END KIND
    &KIND O
      ELEMENT   O
      BASIS_SET DZVP-GTH-PBE
      POTENTIAL GTH-PBE-q6
    &END KIND
    &CELL
      A     46.937    0.000000000    0.000000000
      B     0.000000000    44.121    0.000000000
      C     0.000000000    0.000000000    45.182
    &END CELL
    &COORD

O 14.33740000 18.87930000 5.06954000
H 13.04570000 18.09760000 4.04770000
H 14.70680000 20.44740000 4.24685000
O 4.00209000 23.02150000 22.40860000
H 3.03148000 21.52880000 21.95640000
H 3.06475000 0.98938600 21.82520000
O 9.23251000 0.27121000 19.84060000
H 7.58758000 23.31200000 19.16410000
H 10.43540000 0.33392200 18.47260000
O 16.94190000 16.75060000 22.70430000
H 17.75280000 16.24410000 0.80389300
H 15.53840000 17.77750000 23.20130000
O 18.86960000 9.65637000 17.55090000
H 19.30550000 10.94170000 18.84300000
H 18.20340000 10.90610000 16.43600000
O 20.90920000 16.73100000 2.74091000
H 21.20290000 18.09710000 3.90013000
H 21.35640000 15.21910000 3.63481000
O 21.66860000 15.02080000 16.42430000
H 19.06540000 12.19520000 13.21590000
H -0.25975100 14.10110000 16.49600000
O 4.40684000 12.46280000 9.62563000
H 6.01212000 11.71790000 10.12480000
H 4.10941000 11.94690000 7.88104000
O 12.19700000 3.21948000 3.21163000
H 12.04120000 3.86401000 0.40937300
H 12.22670000 4.80880000 4.10240000
O 15.04920000 9.99122000 6.92472000
H 15.26020000 11.68610000 7.58818000
H 13.39660000 9.98162000 6.18826000
O 2.26042000 4.65588000 19.58150000
H 0.87477400 5.69982000 20.15360000
H 1.60693000 3.30690000 18.54720000
O 21.15980000 6.06759000 10.07840000
H 21.19250000 4.61309000 11.16120000
H 20.58940000 5.49637000 8.41381000
O 19.15750000 1.34218000 18.12910000
H 18.67480000 2.49408000 19.45310000
H 20.65240000 2.21167000 17.46460000
O 20.29680000 20.09350000 20.31270000
H 19.33120000 21.43010000 19.55090000
H 19.12720000 18.87030000 21.03110000
O 13.95400000 22.20900000 0.38406000
H 13.23810000 23.59340000 1.33693000
H 12.66960000 21.68990000 22.68210000
O 6.95395000 2.26483000 8.47474000
H 6.95242000 1.37277000 6.88873000
H 5.24164000 2.85885000 8.72019000
O 7.93598000 8.64609000 2.85254000
H 8.28852000 8.13352000 4.56786000
H 9.58789000 9.09462000 2.22378000
O 14.79650000 19.11800000 13.53540000
H 14.07230000 19.94410000 14.97430000
H 16.35380000 20.04470000 13.32170000
O 4.76432000 10.86910000 20.86500000
H 3.57765000 10.03480000 21.96380000
H 3.62193000 11.22480000 19.50210000
O 17.65210000 10.01870000 1.65789000
H 15.86180000 10.49260000 2.13924000
H 17.51720000 8.24781000 1.17559000
O 19.79610000 19.78240000 14.40180000
H 20.04800000 18.05580000 15.03040000
H 19.27710000 20.85570000 15.76300000
O 10.50550000 9.25300000 20.76080000
H 10.90070000 9.22032000 18.94440000
H 8.81302000 9.89338000 20.92840000
O 13.31100000 0.15683000 16.69540000
H 14.89210000 0.86080800 17.27330000
H 12.84150000 1.16357000 15.25160000
O 10.41180000 6.45073000 7.59502000
H 10.44180000 7.83703000 8.76681000
H 9.11327000 5.27955000 8.15754000
O 21.29680000 5.07909000 15.51560000
H 20.18980000 6.35236000 16.21680000
H 22.70120000 6.02672000 14.89590000
O 17.01180000 1.07700000 9.78332000
H 15.30870000 24.92320000 10.25720000
H 16.98480000 0.86093900 7.96258000
O 22.10530000 11.51760000 4.64798000
H 20.64090000 10.67840000 3.92328000
H 21.48060000 12.78590000 5.78753000
O 6.71648000 20.35200000 10.74350000
H 6.28376000 22.03750000 10.21120000
H 8.55596000 20.42240000 10.71060000
O 4.16195000 6.79528000 15.31760000
H 2.79551000 7.60431000 14.42900000
H 3.46943000 6.27250000 16.94580000
O 17.14250000 5.36927000 21.23720000
H 17.06090000 6.86907000 20.20360000
H 15.40420000 4.88340000 21.42300000
O 11.55010000 4.41719000 21.90010000
H 10.80820000 6.15217000 21.87110000
H 10.34690000 3.16447000 21.17880000
O 15.06320000 7.81562000 11.66740000
H 16.33570000 6.57160000 11.64960000
H 14.92650000 8.46756000 9.94575000
O 11.89100000 20.99750000 9.64167000
H 12.95780000 19.87000000 10.61750000
H 12.78790000 21.17690000 8.07775000
O 3.10981000 16.67690000 2.95947000
H 3.30014000 15.20500000 4.01448000
H 2.27652000 17.83750000 4.08923000
O 3.89219000 11.59200000 4.74447000
H 5.32534000 10.72300000 4.00186000
H 2.40345000 10.90040000 3.97084000
O 2.93625000 17.60430000 8.00640000
H 3.92471000 16.22900000 8.65859000
H 3.67753000 19.02010000 8.87993000
O 13.08840000 10.57750000 1.88572000
H 12.29540000 12.12120000 2.56646000
H 12.84780000 10.58070000 0.08544400
O 21.86850000 14.24200000 9.11490000
H 0.15529500 14.44560000 8.65450000
H 21.83750000 12.64330000 9.97849000
O 12.00060000 10.16130000 15.79890000
H 12.63570000 9.25605000 14.34990000
H 12.89590000 11.76230000 15.80110000
O 17.24460000 12.65800000 13.27860000
H 15.96500000 11.44930000 12.69550000
H 16.86180000 14.28770000 12.58150000
O 10.72110000 18.62330000 20.20680000
H 9.62527000 17.29250000 20.77640000
H 9.84959000 20.09600000 20.82330000
O 20.94590000 0.00625000 2.33239000
H 21.16590000 22.33840000 0.97301300
H 21.28120000 22.52160000 3.86481000
O 19.72730000 13.03950000 20.81420000
H 20.35400000 14.45650000 19.78700000
H 18.25410000 13.57610000 21.72900000
O 0.76103000 9.86913000 12.19730000
H 23.28660000 8.43350000 11.57260000
H 1.98142000 10.34670000 10.89600000
O 21.78290000 23.05480000 11.29210000
H 21.16230000 21.60890000 12.26280000
H 20.20510000 0.33964300 10.75080000
O 7.30198000 18.02510000 15.72280000
H 8.75841000 18.87220000 16.32460000
H 7.25428000 18.45990000 13.95160000
O 2.53635000 23.13010000 15.92650000
H 1.72833000 0.79651800 14.75170000
H 1.55536000 21.60370000 15.79970000
O 3.98603000 14.81750000 17.76490000
H 3.63550000 15.36120000 16.01530000
H 3.27875000 16.10470000 18.97870000
O 8.31750000 9.88424000 12.22490000
H 9.54378000 10.86220000 13.20360000
H 7.65110000 8.65253000 13.35760000
O 23.36000000 8.58887000 21.66390000
H 21.78720000 9.25677000 21.06010000
H 23.06680000 8.16627000 23.40440000
O 11.35860000 3.37760000 12.58380000
H 11.65220000 4.17815000 10.92560000
H 9.93830000 2.37382000 12.29090000
O 1.73447000 18.46440000 21.47870000
H 23.54510000 19.15480000 20.98120000
H 1.45137000 17.49390000 23.01990000
O 16.47760000 1.23995000 4.75221000
H 17.46130000 0.87633200 3.25772000
H 14.81830000 1.97103000 4.24059000
O 18.68310000 6.07620000 5.74807000
H 17.03520000 5.33870000 5.58238000
H 18.35670000 7.83879000 6.04905000
O 0.41480400 4.79416000 3.52281000
H 22.97970000 5.82599000 4.71103000
H 22.51360000 3.97416000 2.62936000
O 7.10038000 15.31070000 23.40200000
H 5.90002000 14.13610000 22.65450000
H 6.07754000 16.11180000 1.23640000
O 11.26510000 15.12980000 3.09114000
H 10.63810000 15.60220000 4.78791000
H 9.73894000 14.93360000 2.09902000
O 9.26827000 15.28090000 7.57562000
H 10.17510000 15.28570000 9.23139000
H 7.49814000 15.49370000 7.85347000
O 22.96310000 21.05580000 5.97020000
H 22.88710000 21.01280000 7.77996000
H 1.01074000 22.03470000 5.54252000
O 3.10246000 3.53459000 11.50820000
H 2.35767000 4.90594000 10.58860000
H 4.42123000 4.24368000 12.55000000
O 13.81780000 14.40960000 18.31540000
H 14.17000000 13.11790000 19.53220000
H 12.40880000 15.32120000 18.97520000
O 16.53300000 14.94670000 7.98868000
H 15.94260000 16.43390000 7.04903000
H 18.07430000 15.43860000 8.74656000
O 3.65958000 -0.00545600 4.25160000
H 3.34334000 23.06050000 2.47561000
H 3.10618000 1.72613000 4.34988000
O 12.04860000 14.31200000 11.90110000
H 12.83910000 15.52750000 12.99320000
H 5.83054000 14.58860000 17.92490000
    
    &END COORD
  &END SUBSYS
  &DFT
    BASIS_SET_FILE_NAME  BASIS_SET
    POTENTIAL_FILE_NAME  GTH_POTENTIALS
    &QS
      EPS_DEFAULT 1.0E-10
    &END QS
    &MGRID
      NGRIDS 4
      CUTOFF 135
      REL_CUTOFF 115
    &END MGRID
    &XC
      &XC_FUNCTIONAL PADE
      &END XC_FUNCTIONAL
    &END XC
    &SCF
      SCF_GUESS ATOMIC
      EPS_SCF 1.0E-7
      MAX_SCF 300
      &DIAGONALIZATION  ON
        ALGORITHM STANDARD
      &END DIAGONALIZATION
      &MIXING  T
        METHOD BROYDEN_MIXING
        ALPHA 0.4
        NBROYDEN 8
      &END MIXING
    &END SCF
  &END DFT
  &PRINT
    &FORCES ON
    &END FORCES
  &END PRINT
&END FORCE_EVAL
