&GLOBAL
  PROJECT H2O_bulk
  RUN_TYPE ENERGY_FORCE
  PRINT_LEVEL LOW
&END GLOBAL
&FORCE_EVAL
  METHOD Quickstep
  &SUBSYS
    &KIND H
      ELEMENT   H
      BASIS_SET DZVP-GTH-PBE
      POTENTIAL GTH-PBE-q1
    &END KIND
    &KIND O
      ELEMENT   O
      BASIS_SET DZVP-GTH-PBE
      POTENTIAL GTH-PBE-q6
    &END KIND
    &CELL
      A     46.937    0.000000000    0.000000000
      B     0.000000000    44.121    0.000000000
      C     0.000000000    0.000000000    45.182
    &END CELL
    &COORD

O 11.12450000 6.46741000 3.75363000
H 10.46910000 5.25952000 2.53610000
H 10.59090000 5.85488000 5.38735000
O 4.23430000 19.78420000 1.60647000
H 3.44899000 21.15200000 0.66892100
H 5.55800000 19.15770000 0.54857000
O 13.94340000 20.14180000 20.52990000
H 14.45940000 21.63020000 21.50040000
H 12.79080000 19.20090000 21.56160000
O 16.65310000 8.55417000 2.37473000
H 15.85600000 7.72487000 3.77383000
H 16.05970000 7.63389000 0.89763500
O 18.62190000 9.28110000 18.34300000
H 18.40490000 10.71920000 17.24080000
H 20.12120000 9.83204000 19.24240000
O 23.17130000 9.77498000 21.04200000
H 22.98630000 9.00421000 22.68320000
H -0.10050000 11.49730000 21.32350000
O 1.13583000 13.23140000 14.55090000
H 1.45849000 14.99760000 14.91730000
H 2.04285000 12.32530000 15.83070000
O 5.42371000 8.87089000 12.31170000
H 4.84810000 7.18950000 12.75130000
H 4.00818000 9.65243000 11.48270000
O 6.40790000 8.04353000 2.21315000
H 7.21762000 10.41440000 -0.35445600
H 8.03867000 7.52598000 2.86307000
O 7.39219000 15.11950000 6.77219000
H 6.07901000 13.89390000 7.13113000
H 7.26726000 15.38070000 4.98155000
O 7.92071000 2.45308000 19.55950000
H 8.02411000 0.61472500 19.49310000
H 7.87859000 2.86713000 17.78820000
O 18.35750000 2.78094000 14.87250000
H 18.13750000 3.84113000 16.31040000
H 19.49490000 1.48634000 15.46240000
O 21.41760000 23.40050000 18.06480000
H 21.19540000 0.58991100 19.59890000
H 21.36010000 21.67700000 18.56020000
O 20.15120000 13.89270000 17.10580000
H 21.55590000 13.57540000 15.98650000
H 20.58100000 15.33010000 18.10070000
O 15.82400000 0.49439400 23.55740000
H 14.42220000 1.62280000 0.07489200
H 15.84900000 23.17080000 1.18605000
O 23.81380000 19.74560000 6.25528000
H 23.12990000 18.70250000 7.56763000
H 0.73539700 18.72810000 4.95637000
O 3.41546000 11.77720000 6.23933000
H 4.38796000 10.75890000 5.07122000
H 2.14250000 12.64560000 5.35394000
O 16.35290000 18.85250000 11.42460000
H 15.04730000 18.59970000 12.66000000
H 15.70540000 18.01550000 9.94528000
O 4.44887000 4.63224000 22.88060000
H 5.37263000 5.62228000 0.44904700
H 5.58048000 3.63287000 21.87600000
O 15.47570000 6.40813000 21.66760000
H 16.82270000 7.44047000 20.97090000
H 13.93600000 7.16463000 21.00580000
O 2.55453000 20.22400000 17.63850000
H 2.68075000 19.37420000 15.99910000
H 1.40692000 21.61760000 17.30480000
O 10.34630000 7.75466000 20.25360000
H 9.22685000 6.35834000 20.59100000
H 10.02330000 8.91117000 21.61260000
O 14.85320000 22.38920000 15.23550000
H 15.76970000 0.17488600 15.13110000
H 14.18000000 22.38270000 16.92730000
O 7.52861000 1.15363000 8.88464000
H 8.89040000 2.37579000 8.68970000
H 5.98251000 2.05982000 9.14815000
O 6.16830000 11.54830000 16.73320000
H 5.85202000 10.29520000 15.44060000
H 7.29749000 12.68200000 15.79900000
O 13.26210000 5.53901000 15.82440000
H 11.49830000 5.14918000 15.47970000
H 13.24430000 5.99009000 17.57970000
O 22.02810000 7.48840000 2.33690000
H 21.30300000 5.84066000 2.62845000
H 20.51940000 8.45442000 1.97725000
O 7.92218000 22.56350000 4.33848000
H 6.15956000 22.22760000 4.08914000
H 7.92317000 -0.60982200 6.08872000
O 3.53650000 4.08178000 13.80750000
H 2.87097000 4.00245000 15.51640000
H 2.03955000 4.04041000 12.76090000
O 13.82090000 13.91770000 15.57850000
H 15.38480000 14.75760000 15.19100000
H 14.25070000 12.17210000 15.31780000
O 7.51226000 20.78180000 20.04590000
H 5.77867000 21.16310000 19.59100000
H 7.98771000 19.61560000 18.73660000
O 22.34980000 9.88454000 11.03730000
H 23.01510000 8.32090000 10.42970000
H 23.71950000 10.82700000 11.80320000
O 10.57440000 21.53790000 11.80890000
H 10.98060000 21.64320000 10.05130000
H 12.02300000 22.16240000 12.70970000
O -0.15698700 14.84750000 2.86885000
H 22.56010000 16.31390000 2.78454000
H 22.42860000 13.56870000 3.37547000
O 19.95040000 3.44267000 5.52300000
H 21.59240000 3.55419000 6.31600000
H 20.06740000 1.87146000 4.58532000
O 10.71260000 2.16290000 0.81561500
H 10.14770000 1.90717000 22.91980000
H 9.51877000 1.33511000 1.93762000
O 11.39280000 14.38160000 20.91120000
H 12.59520000 13.14400000 21.48380000
H 12.29550000 15.03460000 19.47310000
O 21.11970000 16.42350000 9.69727000
H 19.34770000 16.74840000 9.92874000
H 21.21580000 14.62430000 9.45003000
O 9.55766000 16.45850000 14.81050000
H 9.15228000 17.85540000 13.67470000
H 11.05780000 15.74510000 14.31060000
O 14.08260000 14.63120000 7.45121000
H 14.65690000 12.88580000 7.60127000
H 12.82700000 14.61950000 6.16273000
O 21.14510000 11.12540000 6.00683000
H 21.74480000 11.06970000 7.72887000
H 20.78130000 9.44471000 5.50554000
O 16.48440000 3.91473000 9.45712000
H 17.55960000 3.75285000 10.88640000
H 17.46810000 4.13864000 7.92798000
O 14.74610000 18.97530000 4.49958000
H 14.82710000 20.43430000 5.60734000
H 14.85770000 17.55040000 5.63720000
O 16.13630000 9.43178000 13.52230000
H 15.29940000 8.20994000 14.59150000
H 17.91650000 9.34014000 13.84970000
O 21.95320000 22.54680000 12.48350000
H 22.06680000 21.96660000 14.19590000
H 20.17600000 22.57770000 12.17930000
O 6.47653000 19.26370000 9.85523000
H 6.65709000 20.85000000 8.97345000
H 7.22683000 17.98810000 8.76545000
O 18.76900000 18.76410000 19.57030000
H 17.01580000 19.29960000 19.79100000
H 18.99140000 17.85690000 21.13490000
O 1.69167000 5.48073000 18.44930000
H 0.75252400 7.02733000 18.31860000
H 2.78221000 5.69739000 19.90270000
O 11.35970000 4.56194000 8.68512000
H 10.70370000 5.93376000 9.69228000
H 13.17180000 4.56948000 9.07508000
O 9.25968000 2.43836000 14.42850000
H 9.50285000 0.85680000 13.49330000
H 7.84289000 3.20313000 13.60030000
O 6.54915000 11.80210000 22.20910000
H 6.46679000 11.49620000 20.36220000
H 7.13337000 13.49290000 22.56130000
O 2.15279000 14.70230000 20.41790000
H 2.78751000 15.21780000 22.04560000
H 2.05548000 16.26490000 19.49020000
O 15.96720000 9.86431000 8.10007000
H 17.61680000 9.72970000 7.37722000
H 16.25230000 9.61263000 9.90484000
O 20.87930000 2.86751000 23.03910000
H 20.44620000 4.59681000 22.66730000
H 19.58480000 2.24773000 24.16610000
O 1.88051000 0.23688600 6.21622000
H 1.51299000 0.76504500 4.50366000
H 1.57311000 22.38820000 6.43311000
O 18.85450000 16.88810000 1.11906000
H 17.27610000 17.61110000 1.56620000
H 18.53530000 15.14630000 0.77236800
O 9.70661000 17.37810000 2.65289000
H 9.52991000 19.16680000 3.00416000
H 11.46520000 17.10060000 2.60732000
O 15.26720000 23.07280000 7.96783000
H 15.85800000 22.12180000 9.40607000
H 15.41760000 1.02691000 8.55275000
O 19.99320000 22.42530000 3.65605000
H 21.30080000 21.10360000 3.87985000
H 19.09460000 22.28930000 5.20548000
O 23.41310000 3.94947000 9.72256000
H 21.87310000 3.11299000 10.20410000
H 0.63775200 2.70392000 8.80189000
O 16.11920000 12.55120000 23.21650000
H 16.97080000 11.24270000 22.28420000
H 15.63000000 11.63900000 0.94493700
O 2.53564000 18.55340000 12.93470000
H 3.90378000 18.37500000 11.70730000
H 1.08350000 19.13750000 12.02380000
O 1.66374000 0.75894400 0.53843600
H 0.09424100 1.29188000 23.55330000
H 2.68545000 2.30913000 0.34786900
O 10.79240000 9.49949000 11.04340000
H 12.42600000 9.97833000 11.65580000
H 10.73760000 10.14430000 9.35841000
    
    &END COORD
  &END SUBSYS
  &DFT
    BASIS_SET_FILE_NAME  BASIS_SET
    POTENTIAL_FILE_NAME  GTH_POTENTIALS
    &QS
      EPS_DEFAULT 1.0E-10
    &END QS
    &MGRID
      NGRIDS 4
      CUTOFF 135
      REL_CUTOFF 115
    &END MGRID
    &XC
      &XC_FUNCTIONAL PADE
      &END XC_FUNCTIONAL
    &END XC
    &SCF
      SCF_GUESS ATOMIC
      EPS_SCF 1.0E-7
      MAX_SCF 300
      &DIAGONALIZATION  ON
        ALGORITHM STANDARD
      &END DIAGONALIZATION
      &MIXING  T
        METHOD BROYDEN_MIXING
        ALPHA 0.4
        NBROYDEN 8
      &END MIXING
    &END SCF
  &END DFT
  &PRINT
    &FORCES ON
    &END FORCES
  &END PRINT
&END FORCE_EVAL
