&GLOBAL
  PROJECT H2O_bulk
  RUN_TYPE ENERGY_FORCE
  PRINT_LEVEL LOW
&END GLOBAL
&FORCE_EVAL
  METHOD Quickstep
  &SUBSYS
    &KIND H
      ELEMENT   H
      BASIS_SET DZVP-GTH-PBE
      POTENTIAL GTH-PBE-q1
    &END KIND
    &KIND O
      ELEMENT   O
      BASIS_SET DZVP-GTH-PBE
      POTENTIAL GTH-PBE-q6
    &END KIND
    &CELL
      A     46.937    0.000000000    0.000000000
      B     0.000000000    44.121    0.000000000
      C     0.000000000    0.000000000    45.182
    &END CELL
    &COORD

O 14.78600000 7.26539000 10.71300000
H 15.34300000 8.10561000 12.25100000
H 15.79740000 5.79468000 10.87210000
O 16.66090000 7.55563000 23.61870000
H 17.31170000 5.80169000 -0.56915700
H 15.40470000 7.32718000 22.29840000
O 2.55876000 21.63120000 23.52300000
H 3.64759000 22.24850000 22.18950000
H 3.40348000 22.47150000 0.40593000
O 12.51720000 22.51170000 15.38340000
H 13.50090000 21.61770000 14.11230000
H 12.52850000 21.43580000 16.84730000
O 5.89126000 23.37470000 19.70890000
H 7.57304000 23.71260000 20.32550000
H 5.03174000 0.40744400 19.20640000
O 23.12070000 9.78978000 2.92484000
H 22.20560000 10.83910000 4.36193000
H 22.45660000 9.87660000 1.04948000
O 6.21222000 1.08747000 3.18473000
H 5.47444000 2.69939000 3.49416000
H 5.10095000 -0.27579400 3.69598000
O 13.04410000 4.16477000 16.33870000
H 13.15430000 4.21898000 14.53580000
H 11.87810000 2.83678000 16.71330000
O 2.86353000 8.75041000 7.88993000
H 0.38650500 10.15150000 3.14350000
H 4.61695000 8.89130000 7.40943000
O 11.49090000 18.54230000 18.69930000
H 12.06720000 17.10120000 19.61980000
H 9.75757000 18.40940000 18.21670000
O 6.22660000 18.45540000 16.43370000
H 6.03630000 18.16500000 14.64530000
H 4.92776000 19.66070000 16.84950000
O 4.16807000 16.68820000 6.63578000
H 5.63159000 15.89740000 5.87601000
H 2.65117000 15.83010000 6.13288000
O 23.18170000 16.63860000 3.80082000
H 22.46170000 18.34380000 3.94345000
H 24.64990000 16.84360000 2.75564000
O 1.64110000 10.86890000 17.46750000
H 3.37096000 11.17150000 17.02940000
H 1.79556000 10.75320000 19.26340000
O 13.58090000 22.21100000 21.90010000
H 12.55450000 23.70110000 22.23420000
H 12.65750000 21.15350000 20.73030000
O 3.29582000 12.76150000 1.96310000
H 3.39653000 13.90010000 0.53165900
H 1.52718000 13.02560000 2.29205000
O 19.18880000 6.53248000 6.21157000
H 19.15200000 7.67540000 7.58882000
H 21.03450000 6.27865000 5.84420000
O 23.19060000 1.07473000 1.43276000
H 24.61990000 2.81475000 2.67825000
H 23.70740000 24.61240000 -0.12882400
O 16.33990000 10.21960000 3.32882000
H 16.18880000 9.41932000 1.61441000
H 16.59040000 8.73050000 4.35002000
O 17.60360000 -0.22863500 16.47090000
H 18.47990000 24.10020000 18.03190000
H 15.86350000 -0.37094300 16.94340000
O 16.13370000 10.23500000 14.96230000
H 17.14810000 8.77311000 15.54700000
H 17.55020000 11.17880000 14.30140000
O 17.00570000 1.71542000 4.38455000
H 17.86740000 2.97869000 5.37975000
H 17.47590000 0.03680100 4.96116000
O 21.62440000 21.78680000 13.69240000
H 19.91250000 22.41890000 13.96640000
H 22.56190000 22.15210000 15.24010000
O 5.76820000 14.04600000 19.71710000
H 6.00541000 15.21890000 18.34100000
H 4.31118000 14.74550000 20.53950000
O 9.77020000 4.92150000 10.63030000
H 9.67385000 3.33045000 9.75830000
H 11.44560000 5.55652000 10.40550000
O -0.06230700 23.28340000 17.92020000
H -0.67684800 0.48386700 17.96640000
H 23.90820000 22.53910000 19.50970000
O 21.59830000 11.88470000 13.38840000
H 22.66620000 11.36040000 14.76380000
H 21.96070000 13.66430000 13.07490000
O 3.59634000 21.78310000 5.42951000
H 3.77669000 19.97080000 5.65207000
H 3.26861000 22.34530000 7.11487000
O 0.77633700 4.53495000 3.80540000
H 0.27823200 6.13083000 3.10402000
H 0.73891800 4.92969000 5.71476000
O 1.25649000 16.29060000 22.96850000
H 1.63710000 18.05620000 22.87680000
H -0.52030200 16.14410000 22.56700000
O 17.28740000 15.65940000 0.33093900
H 16.52290000 17.10850000 1.14899000
H 17.54200000 14.35550000 1.53237000
O 15.18510000 21.50790000 10.68980000
H 16.19890000 20.02790000 10.37520000
H 14.11690000 21.78360000 9.20412000
O 15.44580000 20.24810000 1.78168000
H 14.51870000 20.51560000 0.19064600
H 14.59760000 21.39470000 2.93410000
O 4.06191000 3.50428000 17.99690000
H 4.01139000 3.65588000 16.17190000
H 5.33040000 4.70227000 18.56830000
O 23.47510000 16.78650000 12.98690000
H 0.72954900 16.99130000 12.51000000
H 22.85090000 18.49890000 13.04200000
O 16.67490000 17.02740000 15.79680000
H 14.97350000 17.75440000 15.62500000
H 17.20640000 16.83390000 14.07570000
O 18.17600000 2.96827000 -0.62112200
H 18.07860000 2.01277000 0.93178600
H 19.97190000 2.91692000 23.55640000
O 23.18560000 6.31113000 19.02550000
H 21.67190000 5.74844000 18.06770000
H 0.00684700 6.57036000 17.78910000
O 7.28140000 8.76634000 0.96790600
H 6.15065000 10.14390000 1.31475000
H 8.70943000 9.63213000 0.24993600
O 12.58170000 12.98250000 5.94639000
H 13.93540000 12.06320000 5.08347000
H 11.05230000 11.86490000 5.97196000
O 19.09640000 5.54512000 15.66290000
H 18.22030000 3.95222000 15.94910000
H 19.68790000 6.51750000 12.20980000
O 20.96690000 10.19970000 22.83990000
H 19.23000000 9.49872000 22.99640000
H 21.62610000 9.42521000 21.27980000
O 8.02716000 5.77136000 20.94580000
H 9.36570000 6.97430000 20.60260000
H 7.23658000 6.34549000 22.49380000
O 9.91218000 1.36263000 22.76000000
H 9.57964000 1.54489000 0.00784200
H 9.40519000 2.97369000 22.01450000
O 20.70330000 17.21660000 21.42000000
H 19.96110000 16.31930000 20.03400000
H 19.57490000 16.75000000 22.86430000
O 9.23075000 17.02320000 4.04254000
H 9.16167000 17.82660000 2.45416000
H 10.47900000 15.67890000 3.95074000
O 12.50570000 20.97980000 6.06838000
H 11.37660000 22.32670000 6.57377000
H 11.57380000 19.46630000 5.67950000
O 20.91580000 7.21815000 10.79540000
H 22.36890000 5.87470000 10.39880000
H 21.30060000 8.86816000 11.71720000
O 19.65710000 22.53250000 21.32130000
H 19.87070000 20.72820000 21.33260000
H 18.14040000 22.67060000 22.32180000
O 20.88290000 21.50800000 3.74802000
H 19.49480000 20.77910000 2.81534000
H 21.60950000 22.79380000 2.61340000
O 17.07920000 15.63950000 10.56740000
H 18.10940000 15.33470000 9.10494000
H 15.30800000 15.70560000 10.11440000
O 9.42259000 0.05031100 7.67354000
H 8.49865000 0.42799700 6.09159000
H 8.47679000 23.34870000 8.66192000
O 0.07071000 3.64707000 9.30439000
H -0.05069900 1.79129000 9.19738000
H 1.45619000 4.11523000 10.38840000
O 4.88128000 2.81343000 12.60210000
H 5.78408000 4.33592000 12.18230000
H 6.23797000 1.60853000 12.60820000
O 9.01906000 11.44950000 13.26890000
H 8.90470000 9.74545000 12.68050000
H 10.31480000 12.02850000 12.15500000
O 14.30260000 13.87440000 20.39810000
H 15.50020000 13.79370000 21.80110000
H 15.35220000 14.26330000 18.97460000
O 12.60360000 8.28363000 19.72320000
H 13.31850000 9.78305000 18.97810000
H 12.80240000 7.09081000 18.36190000
O 9.37607000 13.64960000 23.73730000
H 7.89561000 14.02110000 22.74870000
H 10.64060000 13.50040000 22.44360000
O 7.88249000 21.88650000 11.79640000
H 8.53332000 20.23910000 11.52260000
H 8.77226000 22.53070000 13.25060000
O 17.88160000 2.07652000 10.21120000
H 19.45870000 2.45958000 9.36436000
H 17.66610000 0.27700700 10.16210000
O 8.67657000 9.19037000 6.66321000
H 8.85805000 8.00969000 8.03749000
H 7.90301000 8.36090000 5.22243000
O 7.53283000 16.45410000 11.19470000
H 7.60131000 14.84570000 12.01360000
H 6.33006000 16.30490000 9.84421000
O 23.63220000 22.99730000 8.75022000
H 22.97860000 22.33680000 10.31740000
H 22.59650000 22.37940000 7.31074000
O 20.40380000 12.55270000 5.62046000
H 18.71230000 12.18010000 4.79712000
H 20.97450000 14.13220000 4.82884000
    
    &END COORD
  &END SUBSYS
  &DFT
    BASIS_SET_FILE_NAME  BASIS_SET
    POTENTIAL_FILE_NAME  GTH_POTENTIALS
    &QS
      EPS_DEFAULT 1.0E-10
    &END QS
    &MGRID
      NGRIDS 4
      CUTOFF 135
      REL_CUTOFF 115
    &END MGRID
    &XC
      &XC_FUNCTIONAL PADE
      &END XC_FUNCTIONAL
    &END XC
    &SCF
      SCF_GUESS ATOMIC
      EPS_SCF 1.0E-7
      MAX_SCF 300
      &DIAGONALIZATION  ON
        ALGORITHM STANDARD
      &END DIAGONALIZATION
      &MIXING  T
        METHOD BROYDEN_MIXING
        ALPHA 0.4
        NBROYDEN 8
      &END MIXING
    &END SCF
  &END DFT
  &PRINT
    &FORCES ON
    &END FORCES
  &END PRINT
&END FORCE_EVAL
