&GLOBAL
  PROJECT H2O_bulk
  RUN_TYPE ENERGY_FORCE
  PRINT_LEVEL LOW
&END GLOBAL
&FORCE_EVAL
  METHOD Quickstep
  &SUBSYS
    &KIND H
      ELEMENT   H
      BASIS_SET DZVP-GTH-PBE
      POTENTIAL GTH-PBE-q1
    &END KIND
    &KIND O
      ELEMENT   O
      BASIS_SET DZVP-GTH-PBE
      POTENTIAL GTH-PBE-q6
    &END KIND
    &CELL
      A     46.937    0.000000000    0.000000000
      B     0.000000000    44.121    0.000000000
      C     0.000000000    0.000000000    45.182
    &END CELL
    &COORD

O 1.92081000 15.66660000 3.20291000
H 1.60997000 17.34000000 2.66905000
H 0.21118800 14.88870000 4.06343000
O 20.97170000 21.07400000 16.44480000
H 20.66260000 22.23230000 14.87280000
H 20.68540000 22.18810000 17.85750000
O 11.61300000 16.47170000 10.84560000
H 10.56400000 16.45930000 12.18370000
H 11.41290000 15.09560000 10.12070000
O 17.28770000 2.15630000 5.22806000
H 17.90960000 0.27905700 4.65584000
H 15.61320000 2.30837000 5.91539000
O 12.78200000 16.39260000 20.88580000
H 13.08110000 14.73110000 19.80820000
H 11.47940000 16.33730000 22.15120000
O 23.24970000 5.07349000 16.68770000
H 0.59177600 6.60968000 15.82630000
H 1.20425000 3.81887000 16.25310000
O 6.21300000 5.32633000 14.68440000
H 5.04807000 4.51177000 15.38470000
H 6.69555000 4.18701000 13.56650000
O 6.14703000 12.10530000 14.60850000
H 7.48625000 11.76930000 13.37680000
H 6.41985000 10.88100000 15.82000000
O 7.58777000 20.18400000 19.86350000
H 7.16225000 18.47210000 19.42380000
H 8.90701000 20.23320000 21.12000000
O 20.98450000 18.26780000 8.20055000
H 22.56320000 18.66120000 7.87526000
H 21.04250000 16.78690000 9.01333000
O 19.63970000 12.77190000 10.09030000
H 18.34020000 13.74970000 9.56932000
H 18.83980000 11.89330000 11.49880000
O 6.49205000 18.79430000 8.67632000
H 8.34699000 18.86560000 9.17945000
H 6.22019000 17.04610000 7.71710000
O 19.32380000 20.79590000 2.92302000
H 20.94070000 21.64900000 3.08830000
H 19.26410000 19.20530000 3.36908000
O 21.99810000 12.04910000 5.40092000
H 21.29630000 11.71750000 6.80022000
H 22.23600000 10.30700000 4.34858000
O 8.39306000 23.02480000 14.02780000
H 6.90897000 23.45570000 14.90130000
H 8.97030000 21.64640000 14.80180000
O 9.77890000 7.37844000 5.24789000
H 10.29950000 5.53661000 4.86401000
H 9.03922000 7.19359000 6.81446000
O 1.33762000 1.33703000 2.32143000
H 23.33680000 2.67785000 1.81427000
H 2.62697000 2.32053000 3.34660000
O 11.76100000 1.73940000 19.54390000
H 11.45020000 0.08318800 20.35500000
H 11.14380000 1.70634000 17.68040000
O 0.79298000 2.39650000 9.94911000
H 1.99084000 2.28147000 8.95482000
H 22.42010000 3.03865000 8.74625000
O 10.00370000 11.91000000 2.08416000
H 11.20890000 11.43290000 3.23767000
H 10.64800000 11.18460000 0.56391500
O 21.33640000 7.84452000 2.59135000
H 22.32380000 7.66676000 1.34486000
H 19.43420000 8.02180000 2.02281000
O 12.48120000 9.50391000 21.59530000
H 13.81080000 10.29970000 20.54210000
H 13.30700000 8.88107000 23.19930000
O 21.98410000 10.31130000 16.88120000
H 22.12120000 11.58290000 15.57060000
H 22.51480000 11.03020000 18.48500000
O 20.87410000 1.79728000 19.82460000
H 20.95410000 3.43161000 18.90100000
H 19.32010000 2.08331000 20.91880000
O 16.43660000 15.97980000 12.24890000
H 14.49030000 16.01450000 12.54290000
H 16.96960000 17.05610000 13.45200000
O 5.05932000 10.95550000 3.19738000
H 3.28163000 12.84490000 3.28441000
H 6.56005000 11.72810000 2.94391000
O 8.87069000 11.89160000 10.09490000
H 7.27249000 11.96070000 9.28162000
H 9.78672000 12.10000000 8.83139000
O 7.14728000 4.42461000 21.48140000
H 6.39558000 2.78730000 21.08660000
H 8.69900000 4.15585000 22.64810000
O 2.90520000 5.88221000 5.43016000
H 1.11314000 5.27894000 5.41232000
H 3.03824000 7.51401000 4.70112000
O 11.50740000 18.92110000 16.04620000
H 11.70110000 19.29620000 17.66030000
H 13.12010000 18.60440000 15.32740000
O 3.18805000 1.62585000 15.79400000
H 2.52341000 1.22696000 17.44220000
H 2.29236000 23.47880000 14.68520000
O 2.41085000 20.20220000 5.21027000
H 3.67635000 20.42740000 6.02488000
H 2.35292000 21.81730000 4.10625000
O 8.81289000 8.83035000 17.19720000
H 8.41423000 7.10896000 17.92480000
H 9.90987000 9.46179000 18.56000000
O 17.95180000 15.75360000 3.28392000
H 18.77370000 14.92660000 4.51588000
H 16.20110000 14.76710000 3.24512000
O 16.77970000 18.34140000 16.60700000
H 17.57870000 16.98390000 17.59210000
H 18.33460000 19.30260000 15.99200000
O 14.92900000 8.72870000 5.72459000
H 13.65160000 7.71318000 5.13817000
H 14.09880000 10.36330000 6.36668000
O 15.49790000 18.93200000 7.47382000
H 15.57740000 17.91810000 9.05029000
H 17.28730000 19.45690000 7.22718000
O 16.83890000 10.43850000 13.90610000
H 14.85650000 10.00660000 13.30960000
H 17.49140000 8.69015000 13.89040000
O 4.36003000 12.90830000 8.79282000
H 3.94857000 13.19310000 7.05684000
H 4.40171000 11.08550000 8.81536000
O 9.02282000 18.36090000 1.86698000
H 9.06189000 19.49130000 3.24664000
H 6.83390000 16.91940000 2.55714000
O 15.08120000 22.59130000 10.94200000
H 16.68420000 22.51430000 11.22310000
H 14.15760000 -0.10150100 12.90590000
O 19.20400000 15.47260000 20.76970000
H 20.88010000 16.02840000 20.77360000
H 18.20430000 16.43300000 21.94240000
O 1.16552000 14.68410000 20.70760000
H 1.84984000 14.96230000 22.60350000
H 2.45531000 15.29760000 19.61020000
O 15.74650000 12.41430000 19.00060000
H 17.15300000 10.86690000 15.81880000
H 17.26350000 13.41010000 19.19320000
O 2.46007000 7.22222000 22.13010000
H 1.93303000 5.43824000 21.56230000
H 4.31652000 7.42736000 22.11270000
O 18.86600000 5.90829000 13.77800000
H 19.17020000 6.42126000 12.13480000
H 20.66800000 5.23815000 14.27400000
O 17.97280000 6.92866000 19.03740000
H 16.89920000 7.31792000 20.70660000
H 18.97820000 7.98771000 18.87990000
O 19.59250000 5.70613000 8.55131000
H 18.72230000 4.31130000 7.67707000
H 19.48800000 7.21653000 7.50808000
O 9.23209000 5.87096000 10.27980000
H 9.65666000 7.22551000 11.43030000
H 10.77910000 4.79704000 10.03240000
O 14.89960000 20.82170000 23.24770000
H 16.57200000 20.43460000 0.34644300
H 14.22420000 19.40060000 22.24460000
O 15.69800000 5.27298000 0.81932400
H 18.37130000 3.46731000 5.72020000
H 14.30160000 4.24705000 1.32436000
O 12.74730000 7.63314000 13.34720000
H 13.50080000 6.08475000 14.05930000
H 11.36710000 7.96863000 14.38950000
O 2.81355000 19.87100000 12.71360000
H 4.21791000 19.12510000 11.60990000
H 1.95692000 18.48690000 12.78080000
O 14.41330000 3.40826000 15.15730000
H 13.44980000 3.76698000 16.59140000
H 16.23540000 4.67852000 15.58250000
O 5.21816000 1.31920000 6.40955000
H 6.70779000 0.75248800 7.30490000
H 5.53762000 3.43500000 6.06705000
O 20.21250000 22.34130000 11.26480000
H 20.83060000 -0.20569900 9.71389000
H 20.78480000 20.72960000 11.64500000
O 12.27000000 21.59570000 4.50322000
H 13.69590000 21.55460000 5.51162000
H 12.87030000 20.66600000 2.96044000
O 9.85449000 0.77404700 9.22997000
H 11.51910000 23.25560000 9.16982000
H 9.20958000 0.43917200 11.01390000
O 13.42650000 14.62240000 5.55384000
H 14.46170000 15.96180000 5.85309000
H 11.95890000 15.42080000 4.72602000
O 0.50606900 15.08750000 11.65490000
H 22.24980000 14.58770000 10.80380000
H 1.71966000 14.00990000 10.84170000
O 4.77193000 16.72530000 17.48680000
H 4.04198000 17.52900000 15.93850000
H 4.52900000 14.85700000 17.18820000
O 10.51490000 2.55948000 2.42618000
H 11.28720000 0.86818700 3.29343000
H 8.67737000 2.74157000 2.66727000
O 3.82749000 0.43815300 20.31000000
H 4.28188000 21.73090000 20.23590000
H 3.41077000 0.92993600 22.12790000
O 2.72172000 8.36984000 10.68400000
H 2.87841000 6.66309000 10.18510000
H 4.08914000 8.85569000 11.46990000
    
    &END COORD
  &END SUBSYS
  &DFT
    BASIS_SET_FILE_NAME  BASIS_SET
    POTENTIAL_FILE_NAME  GTH_POTENTIALS
    &QS
      EPS_DEFAULT 1.0E-10
    &END QS
    &MGRID
      NGRIDS 4
      CUTOFF 135
      REL_CUTOFF 115
    &END MGRID
    &XC
      &XC_FUNCTIONAL PADE
      &END XC_FUNCTIONAL
    &END XC
    &SCF
      SCF_GUESS ATOMIC
      EPS_SCF 1.0E-7
      MAX_SCF 300
      &DIAGONALIZATION  ON
        ALGORITHM STANDARD
      &END DIAGONALIZATION
      &MIXING  T
        METHOD BROYDEN_MIXING
        ALPHA 0.4
        NBROYDEN 8
      &END MIXING
    &END SCF
  &END DFT
  &PRINT
    &FORCES ON
    &END FORCES
  &END PRINT
&END FORCE_EVAL
