&GLOBAL
  PROJECT H2O_bulk
  RUN_TYPE ENERGY_FORCE
  PRINT_LEVEL LOW
&END GLOBAL
&FORCE_EVAL
  METHOD Quickstep
  &SUBSYS
    &KIND H
      ELEMENT   H
      BASIS_SET DZVP-GTH-PBE
      POTENTIAL GTH-PBE-q1
    &END KIND
    &KIND O
      ELEMENT   O
      BASIS_SET DZVP-GTH-PBE
      POTENTIAL GTH-PBE-q6
    &END KIND
    &CELL
      A     46.937    0.000000000    0.000000000
      B     0.000000000    44.121    0.000000000
      C     0.000000000    0.000000000    45.182
    &END CELL
    &COORD

O 14.69450000 9.33157000 1.54031000
H 13.22970000 10.44310000 0.86715000
H 13.94800000 7.52693000 1.53557000
O 21.94800000 1.72527000 22.24380000
H 21.86920000 0.35921300 23.29530000
H 20.21870000 2.41625000 22.07670000
O 10.54280000 21.81210000 23.12210000
H 9.98801000 20.05640000 22.85900000
H 11.75580000 21.94770000 22.03390000
O 9.68739000 10.06140000 3.21806000
H 8.95786000 8.77919000 4.45693000
H 9.68938000 11.77140000 4.11269000
O 13.44960000 0.14076200 17.39070000
H 12.83300000 1.56540000 16.37810000
H 15.13440000 0.16007000 17.17010000
O 2.31770000 18.26720000 23.17230000
H 2.37852000 17.69070000 21.33220000
H 3.19452000 19.81100000 22.99820000
O 3.88101000 19.18880000 16.58650000
H 5.25625000 20.15790000 16.67930000
H 3.02001000 19.85180000 17.99200000
O 20.62140000 16.91240000 16.83200000
H 21.49270000 18.16780000 17.92140000
H 21.21970000 17.24510000 15.15820000
O 13.41310000 17.70930000 22.25350000
H 14.24580000 16.60210000 24.34000000
H 15.24920000 17.64070000 21.28550000
O 13.85310000 12.86390000 8.95242000
H 13.27760000 12.54290000 10.81530000
H 14.30710000 11.31090000 8.30490000
O 22.97560000 12.50110000 17.22300000
H 24.56900000 12.42540000 17.79740000
H 22.20890000 14.23040000 17.42090000
O 3.31226000 22.53100000 5.85079000
H 3.22876000 20.77570000 6.60342000
H 5.03026000 22.72800000 5.85728000
O 23.35350000 2.44156000 11.54460000
H 23.74980000 1.04435000 12.62700000
H 24.37340000 3.75842000 12.24560000
O 17.64560000 4.25818000 21.44870000
H 17.83850000 5.20700000 19.82850000
H 16.16070000 4.60426000 22.04770000
O 18.50200000 1.45549000 9.93759000
H 18.74710000 0.99256000 8.11427000
H 20.02980000 2.26332000 10.18220000
O 10.78070000 14.73790000 5.48752000
H 12.20250000 13.87920000 6.61485000
H 11.65400000 16.28280000 4.45189000
O 19.06830000 17.88580000 1.43872000
H 20.66010000 17.79510000 2.48405000
H 19.50660000 16.75530000 0.10126800
O 6.46580000 14.13590000 12.15500000
H 6.78911000 17.08120000 13.42700000
H 6.56607000 14.64040000 10.11830000
O 23.71380000 16.96800000 3.37293000
H 24.59870000 17.57990000 2.08210000
H 23.15040000 15.36250000 2.63899000
O 4.08503000 4.76659000 9.80445000
H 5.36532000 3.53362000 10.58390000
H 2.51063000 3.75658000 10.05530000
O 5.39497000 22.48790000 20.33880000
H 4.60102000 23.94860000 19.85860000
H 6.81335000 22.89470000 20.78240000
O 18.69220000 23.12640000 15.42230000
H 19.41510000 23.32910000 13.80810000
H 20.23150000 23.95420000 16.64230000
O 23.72710000 6.30700000 14.65800000
H 23.46790000 7.90499000 13.74610000
H 24.38910000 6.96455000 16.20660000
O 22.47150000 22.15030000 1.62400000
H 23.93720000 22.10030000 2.64006000
H 21.32080000 21.02040000 2.38183000
O 0.42685500 -0.10080800 18.42470000
H -0.72620500 0.79468000 19.72810000
H 1.81015000 1.30293000 18.03930000
O 22.49940000 20.05130000 20.03160000
H 21.33600000 20.54200000 21.28450000
H 23.91030000 21.12960000 20.03030000
O 7.42852000 13.08210000 21.37260000
H 6.96676000 11.26400000 21.62930000
H 9.01359000 12.92320000 20.77410000
O 13.74570000 2.85355000 12.45610000
H 15.29580000 2.47715000 11.55700000
H 14.66700000 3.54075000 14.17670000
O -0.00252100 16.99520000 13.24980000
H 0.05250800 17.40340000 11.34380000
H 0.95426200 18.37090000 13.95720000
O 1.36502000 8.80358000 6.04600000
H 0.95678200 10.24060000 6.88479000
H 3.02900000 8.32117000 6.69787000
O 14.67840000 19.05660000 10.07700000
H 13.90280000 17.62800000 9.94641000
H 15.04850000 18.96790000 11.84010000
O 15.04660000 8.99514000 16.27600000
H 13.62310000 8.05464000 15.92970000
H 14.31130000 10.57990000 15.39630000
O 10.54410000 0.91797500 2.44147000
H 11.62290000 -0.39328700 3.53775000
H 10.93790000 0.15500700 0.87778900
O 19.04280000 8.67222000 19.12090000
H 17.40740000 9.51639000 19.11560000
H 20.15140000 9.55579000 18.10650000
O 24.11750000 11.84300000 2.04043000
H 25.12750000 10.56730000 3.04253000
H 22.89560000 10.76390000 1.15357000
O 14.02140000 18.42460000 2.67535000
H 14.07100000 19.58250000 4.06595000
H 15.85440000 18.40170000 2.51722000
O 2.39917000 4.66974000 23.53760000
H 1.49774000 2.74652000 23.55560000
H 3.90559000 4.57161000 24.60990000
O 12.03310000 12.49180000 14.00340000
H 10.41170000 11.60700000 13.23780000
H 11.55100000 12.96540000 15.43290000
O 7.43675000 0.86139800 8.27572000
H 8.30985000 0.15898400 9.68518000
H 8.86375000 0.63402400 6.88260000
O 6.73908000 6.21121000 15.25420000
H 5.29179000 7.49636000 14.93310000
H 7.23107000 6.04873000 13.29770000
O 19.14990000 0.73402700 4.72489000
H 19.36200000 0.33216500 2.97359000
H 18.30620000 2.24963000 4.49910000
O 10.97380000 15.30650000 18.23260000
H 9.11619000 15.23970000 18.32690000
H 11.25890000 16.55760000 19.20850000
O 3.22091000 9.60293000 22.61590000
H 2.83494000 7.92927000 23.03860000
H 2.28588000 10.59070000 23.87260000
O 15.74640000 19.13480000 15.44740000
H 16.70440000 19.78630000 16.99530000
H 16.76470000 17.67260000 15.22050000
O 6.29248000 8.66334000 8.24273000
H 5.31265000 7.02023000 8.89741000
H 8.10372000 8.63934000 8.54246000
O 23.02580000 10.69290000 10.93380000
H 22.02020000 11.33840000 9.71715000
H 23.51850000 12.13030000 11.65420000
O 19.62540000 5.66232000 3.73775000
H 19.36450000 6.97162000 2.61337000
H 21.33680000 5.75743000 4.10975000
O 5.33945000 2.92793000 19.16580000
H 5.59660000 3.70567000 17.44090000
H 5.24787000 4.26294000 20.22180000
O 4.26150000 10.17880000 14.32040000
H 5.12038000 11.86480000 13.82090000
H 3.41639000 10.04150000 13.13530000
O 19.91840000 10.18990000 24.28460000
H 19.81800000 8.84700000 22.84960000
H 18.15470000 10.27700000 24.86570000
O 12.58410000 4.95905000 24.32090000
H 12.07220000 3.33698000 24.48200000
H 10.80350000 5.67926000 24.33610000
O 11.17900000 22.28780000 11.47530000
H 12.45840000 22.91510000 12.80460000
H 12.24720000 21.17880000 10.33400000
O 8.63316000 18.77010000 14.82550000
H 9.83501000 17.33280000 15.57100000
H 9.80537000 20.04360000 14.34570000
O 18.34130000 15.07820000 21.50100000
H 18.72360000 13.64070000 21.98720000
H 20.13130000 15.48510000 20.97670000
O 1.70036000 17.84230000 7.53985000
H 2.90896000 16.36460000 7.32618000
H 1.47616000 18.22170000 5.86183000
O 5.61624000 1.67701000 2.04259000
H 4.88102000 0.07143500 1.87495000
H 7.32800000 1.54282000 3.00059000
O 15.46300000 7.61644000 6.41883000
H 15.84070000 9.10752000 5.22982000
H 16.10070000 6.04634000 5.57319000
O 8.79994000 7.56823000 23.45350000
H 9.25470000 8.79961000 24.90760000
H 6.97357000 7.52789000 23.53230000
O 3.37008000 15.35960000 19.18790000
H 3.96657000 15.26510000 17.51400000
H 4.79537000 15.17430000 20.23720000
O 17.99430000 8.39893000 11.81690000
H 16.67720000 8.75778000 12.64620000
H 17.77590000 6.75680000 11.02220000
O 5.49713000 14.29740000 7.42600000
H 5.79731000 12.33940000 7.63000000
H 8.93484000 14.99070000 5.68821000
O 14.41940000 22.29990000 6.25397000
H 14.47950000 20.69510000 7.52575000
H 15.89080000 23.18630000 6.27097000
O 11.14440000 7.16678000 9.25703000
H 12.19410000 6.75323000 7.95270000
H 11.90410000 6.46601000 10.82990000
O 11.88720000 4.84445000 16.74300000
H 11.25420000 4.55698000 18.76140000
H 10.77270000 4.88956000 15.17400000
    
    &END COORD
  &END SUBSYS
  &DFT
    BASIS_SET_FILE_NAME  BASIS_SET
    POTENTIAL_FILE_NAME  GTH_POTENTIALS
    &QS
      EPS_DEFAULT 1.0E-10
    &END QS
    &MGRID
      NGRIDS 4
      CUTOFF 135
      REL_CUTOFF 115
    &END MGRID
    &XC
      &XC_FUNCTIONAL PADE
      &END XC_FUNCTIONAL
    &END XC
    &SCF
      SCF_GUESS ATOMIC
      EPS_SCF 1.0E-7
      MAX_SCF 300
      &DIAGONALIZATION  ON
        ALGORITHM STANDARD
      &END DIAGONALIZATION
      &MIXING  T
        METHOD BROYDEN_MIXING
        ALPHA 0.4
        NBROYDEN 8
      &END MIXING
    &END SCF
  &END DFT
  &PRINT
    &FORCES ON
    &END FORCES
  &END PRINT
&END FORCE_EVAL
