&GLOBAL
  PROJECT H2O_bulk
  RUN_TYPE ENERGY_FORCE
  PRINT_LEVEL LOW
&END GLOBAL
&FORCE_EVAL
  METHOD Quickstep
  &SUBSYS
    &KIND H
      ELEMENT   H
      BASIS_SET DZVP-GTH-PBE
      POTENTIAL GTH-PBE-q1
    &END KIND
    &KIND O
      ELEMENT   O
      BASIS_SET DZVP-GTH-PBE
      POTENTIAL GTH-PBE-q6
    &END KIND
    &CELL
      A     46.937    0.000000000    0.000000000
      B     0.000000000    44.121    0.000000000
      C     0.000000000    0.000000000    45.182
    &END CELL
    &COORD

O 8.71154000 23.41890000 5.46547000
H 8.15365000 23.38190000 3.61129000
H 8.33523000 21.81520000 6.17955000
O 2.32877000 0.63105100 18.42640000
H 2.45382000 0.40233900 20.19010000
H 0.68185600 1.15577000 18.01690000
O 12.34580000 19.11600000 17.28440000
H 10.72880000 18.78840000 16.18740000
H 11.63880000 20.57200000 18.50060000
O 19.35050000 15.87360000 20.71090000
H 18.29730000 16.87710000 19.55900000
H 20.46940000 14.79740000 19.94670000
O 17.65500000 10.42780000 16.76650000
H 15.84800000 9.01221000 17.12650000
H 18.90630000 11.88660000 15.94130000
O 2.91366000 15.07690000 3.46207000
H 3.21568000 16.17490000 1.98740000
H 1.20963000 15.55730000 4.13175000
O 3.86835000 13.51900000 18.92700000
H 2.66638000 14.32060000 18.25550000
H 5.14913000 13.34010000 17.93070000
O 3.52295000 11.77900000 10.32220000
H 2.94320000 10.07990000 10.53780000
H 4.78269000 11.57490000 9.17325000
O 12.91250000 2.96852000 7.09844000
H 14.50380000 2.17274000 7.01884000
H 11.84760000 1.81376000 6.25264000
O 14.99170000 12.02220000 9.54923000
H 14.74820000 14.02790000 8.90244000
H 13.68500000 11.13580000 8.32368000
O 21.08490000 2.90424000 21.94960000
H 19.57720000 3.43666000 22.56930000
H 21.12920000 3.38849000 20.29320000
O 20.75840000 6.99693000 10.36750000
H 19.30350000 6.32226000 10.61460000
H 20.63010000 7.61025000 8.71265000
O 17.47050000 22.10580000 0.21643700
H 18.46670000 23.56280000 -0.32509100
H 18.71370000 20.92370000 0.79976400
O 21.89010000 17.96620000 1.44539000
H 21.37150000 16.95550000 -0.14238700
H 21.36320000 16.88560000 2.69013000
O 8.48863000 23.56040000 0.36623100
H 8.88355000 1.02084000 23.13610000
H 8.04625000 22.08390000 23.31120000
O 5.70141000 19.95790000 11.04500000
H 5.72382000 18.63800000 9.65398000
H 4.38714000 21.04450000 10.35700000
O 1.82112000 8.34952000 1.91934000
H 2.32655000 9.17749000 0.33546600
H 0.65165900 9.33026000 2.55839000
O 15.99820000 2.63306000 16.01620000
H 19.01300000 3.68488000 17.96890000
H 14.51430000 3.37315000 16.44950000
O 12.48990000 11.50300000 1.31405000
H 12.44250000 10.65520000 3.05449000
H 10.66070000 11.91230000 0.98219000
O 22.52610000 10.31880000 19.91670000
H 33.39530000 -2.17865000 7.78822000
H 21.08940000 10.16910000 21.16090000
O 15.58850000 22.10660000 13.40230000
H 15.65450000 23.52250000 14.60940000
H 13.76840000 21.74740000 12.73730000
O 5.94118000 4.81223000 18.01000000
H 5.12062000 6.22556000 18.66110000
H 4.87772000 3.70451000 18.47430000
O 10.03990000 0.27974000 17.30470000
H 10.53520000 0.57378600 15.56080000
H 8.49867000 1.26532000 17.68680000
O 3.43779000 5.63461000 7.22731000
H 1.80581000 5.74000000 7.94247000
H 4.58724000 5.42485000 8.60462000
O 21.84500000 3.71356000 17.24930000
H 22.40360000 5.48024000 17.47030000
H 22.21820000 3.01695000 15.52670000
O 16.56220000 1.67517000 3.90281000
H 17.70920000 2.10617000 5.02956000
H 17.22630000 0.04809400 3.42217000
O 19.86580000 16.50350000 6.41499000
H 20.72620000 14.92560000 7.16721000
H 20.90390000 18.08930000 6.72002000
O 10.56860000 19.93720000 10.87500000
H 10.06010000 18.18150000 10.78900000
H 9.42563000 20.78990000 11.80200000
O 0.93809600 7.79674000 14.85290000
H 0.80605200 9.44978000 15.17290000
H -0.61779500 7.37263000 13.87040000
O 13.07910000 4.88752000 19.70530000
H 13.62730000 7.01284000 19.31910000
H 11.75230000 5.06628000 20.94080000
O 8.84906000 6.53080000 22.59320000
H 7.45912000 6.18793000 21.39860000
H 8.37694000 8.09965000 23.35200000
O 12.99550000 8.12422000 13.88600000
H 12.62200000 9.48075000 12.52950000
H 14.15070000 6.92905000 13.11600000
O 10.03570000 17.51960000 4.39794000
H 11.67980000 16.85720000 5.13067000
H 10.57010000 18.44560000 2.81140000
O 2.89688000 22.92160000 23.69640000
H 4.11951000 23.71390000 0.79830400
H 1.48284000 -0.54689900 0.85067700
O 6.49881000 9.62236000 6.12012000
H 5.95242000 7.98368000 5.65943000
H 6.17675000 10.61610000 4.65188000
O 6.44673000 15.91110000 7.36272000
H 7.90160000 16.15540000 6.21011000
H 5.04985000 15.71050000 6.43030000
O 19.88920000 9.48227000 0.59688800
H 18.56240000 10.43050000 0.99040800
H 18.93050000 8.05439000 -0.25463800
O 22.06700000 19.15070000 10.70020000
H 22.05190000 17.68830000 11.77770000
H 20.50800000 19.23830000 9.98115000
O 14.13070000 10.58950000 19.14720000
H 13.21300000 10.93240000 20.63250000
H 13.15500000 10.79820000 17.77060000
O 18.86860000 14.91160000 14.49250000
H 17.55700000 14.46750000 13.18910000
H 18.76260000 16.47550000 14.99460000
O 13.40480000 15.94410000 20.77340000
H 12.57000000 16.66410000 19.25230000
H 12.33600000 14.63320000 21.17220000
O 22.41930000 20.23330000 16.80510000
H 23.30700000 21.40880000 17.69950000
H 21.52270000 21.34210000 15.33220000
O 2.89057000 8.53275000 20.62670000
H 0.85768500 8.76347000 20.27010000
H 3.38790000 10.20010000 20.22110000
O 0.95581800 13.30220000 14.49780000
H 23.69550000 14.23310000 15.14030000
H 1.44080000 13.84960000 12.72700000
O 15.47700000 4.67125000 11.60240000
H 15.76820000 3.12686000 12.73740000
H 14.70140000 4.04705000 10.04220000
O 9.59969000 13.34940000 17.51370000
H 9.71516000 15.16380000 17.05380000
H 10.18480000 12.59700000 15.90950000
O 21.92850000 0.55707200 12.82780000
H -0.13665000 0.59198800 11.99720000
H 20.84210000 -0.06267700 11.51100000
O 4.39279000 17.92550000 22.38260000
H 3.66572000 16.83210000 20.83560000
H 3.59777000 19.42010000 22.72910000
O 8.48501000 6.70834000 13.71200000
H 10.30630000 7.30203000 13.60570000
H 8.09709000 6.46772000 15.40000000
O 0.12893300 3.36977000 2.17836000
H 0.78582700 5.07935000 1.88194000
H 23.09190000 3.11524000 0.56090700
O 7.57392000 2.86914000 11.05060000
H 8.31542000 3.69221000 8.88929000
H 7.56357000 4.32750000 12.25790000
O 7.57999000 17.80030000 15.52350000
H 7.30254000 18.11830000 13.82160000
H 6.24174000 18.53560000 16.29870000
O 16.96810000 5.30817000 -0.16100600
H 17.23290000 4.14087000 1.37224000
H 15.75760000 4.55778000 22.69290000
O 19.98340000 11.00480000 6.92781000
H 19.10640000 11.33720000 5.41870000
H 18.82750000 11.58910000 7.93898000
O 21.07150000 2.28289000 5.86142000
H 20.89340000 3.53760000 7.17112000
H 22.22300000 3.00053000 4.46967000
O 9.57080000 17.87930000 23.51380000
H 10.48310000 16.69730000 21.90650000
H 7.67259000 17.88000000 23.19860000
O 16.96600000 14.48610000 1.66823000
H 15.35160000 14.17880000 1.60293000
H 17.51610000 14.52970000 -0.14017800
O 12.17190000 8.96102000 6.37149000
H 10.61010000 9.77362000 6.64419000
H 12.03030000 7.18898000 7.04497000
O 17.55290000 21.98560000 8.76909000
H 17.13110000 21.62860000 10.30370000
H 16.37740000 23.44960000 8.55516000
O 3.19514000 0.19628400 10.43430000
H 2.61382000 0.74536400 8.50475000
H 5.13398000 0.31352800 10.46660000
O 17.85740000 19.40850000 17.77360000
H 19.66810000 19.76260000 17.44280000
H 16.27160000 19.65990000 17.14550000
O 14.57360000 17.08670000 7.26836000
H 16.26950000 16.92960000 7.02246000
H 14.41240000 18.48080000 8.47630000
O 3.51678000 0.28479900 4.81352000
H 5.08232000 -0.23724300 5.14328000
H 3.71534000 2.09273000 5.23039000
O 9.80338000 14.33520000 11.91840000
H 8.36305000 14.47450000 11.59050000
H 10.73280000 14.01770000 9.52133000
    
    &END COORD
  &END SUBSYS
  &DFT
    BASIS_SET_FILE_NAME  BASIS_SET
    POTENTIAL_FILE_NAME  GTH_POTENTIALS
    &QS
      EPS_DEFAULT 1.0E-10
    &END QS
    &MGRID
      NGRIDS 4
      CUTOFF 135
      REL_CUTOFF 115
    &END MGRID
    &XC
      &XC_FUNCTIONAL PADE
      &END XC_FUNCTIONAL
    &END XC
    &SCF
      SCF_GUESS ATOMIC
      EPS_SCF 1.0E-7
      MAX_SCF 300
      &DIAGONALIZATION  ON
        ALGORITHM STANDARD
      &END DIAGONALIZATION
      &MIXING  T
        METHOD BROYDEN_MIXING
        ALPHA 0.4
        NBROYDEN 8
      &END MIXING
    &END SCF
  &END DFT
  &PRINT
    &FORCES ON
    &END FORCES
  &END PRINT
&END FORCE_EVAL
