&GLOBAL
  PROJECT H2O_bulk
  RUN_TYPE ENERGY_FORCE
  PRINT_LEVEL LOW
&END GLOBAL
&FORCE_EVAL
  METHOD Quickstep
  &SUBSYS
    &KIND H
      ELEMENT   H
      BASIS_SET DZVP-GTH-PBE
      POTENTIAL GTH-PBE-q1
    &END KIND
    &KIND O
      ELEMENT   O
      BASIS_SET DZVP-GTH-PBE
      POTENTIAL GTH-PBE-q6
    &END KIND
    &CELL
      A     46.937    0.000000000    0.000000000
      B     0.000000000    44.121    0.000000000
      C     0.000000000    0.000000000    45.182
    &END CELL
    &COORD

O 10.91570000 1.67915000 13.41430000
H 9.14471000 1.58399000 12.11750000
H 11.52460000 0.11436200 13.40830000
O 3.53007000 4.28915000 8.17051000
H 5.00578000 3.52483000 7.85973000
H 2.95362000 4.81073000 6.54872000
O 17.58630000 18.81740000 20.18720000
H 16.25570000 17.68940000 18.86400000
H 16.61480000 19.37660000 21.75760000
O 22.64710000 17.70330000 0.66563700
H 22.00530000 15.89170000 0.96755700
H 22.61850000 17.63640000 23.00750000
O 19.43480000 6.24757000 4.88427000
H 19.84960000 4.52753000 5.18729000
H 20.55730000 7.37991000 5.97236000
O 19.46970000 20.95620000 3.27136000
H 20.70020000 20.16970000 2.19040000
H 18.05210000 21.48350000 2.40857000
O 22.89520000 21.54720000 13.57490000
H 23.34640000 21.68070000 15.31190000
H 21.46150000 20.28350000 13.42310000
O 19.81560000 5.31357000 23.74640000
H 20.12900000 7.05337000 23.34450000
H 18.99270000 5.46783000 1.25522000
O 23.09900000 9.49369000 8.14496000
H 0.01499200 8.30723000 9.64358000
H 21.70470000 9.67711000 8.92408000
O 12.30750000 2.32732000 5.37340000
H 13.14050000 2.40143000 7.14292000
H 13.52480000 2.25633000 4.17624000
O 0.43674000 15.71200000 16.48010000
H 1.67885000 14.95990000 15.09090000
H 1.13515000 17.06360000 17.39940000
O 10.31940000 9.00858000 9.48951000
H 11.91540000 7.89314000 9.11533000
H 11.39390000 9.91845000 11.66570000
O 7.32328000 18.24210000 6.36140000
H 8.56565000 19.24120000 5.24294000
H 7.91505000 18.22980000 8.16260000
O 2.54932000 7.52932000 12.11490000
H 3.72595000 8.60650000 12.37160000
H 3.10810000 6.09227000 10.88840000
O 11.97420000 21.07800000 5.36256000
H 12.36660000 20.25180000 3.72186000
H 11.59870000 22.88900000 5.17913000
O 22.15660000 5.90970000 14.62560000
H 22.58880000 4.36279000 13.56130000
H 23.27560000 7.34128000 14.40210000
O 20.09210000 14.16260000 13.81380000
H 20.29030000 12.86380000 12.81640000
H 21.81430000 14.15840000 14.74770000
O 20.01570000 23.44590000 18.49450000
H 20.20220000 23.61660000 16.69530000
H 19.06330000 21.93530000 19.05620000
O 1.96013000 23.13850000 2.39304000
H 1.27861000 0.62321300 2.12316000
H 1.28253000 22.69280000 3.85222000
O 1.10339000 9.70206000 17.61110000
H 2.61849000 10.67050000 18.38580000
H -0.08761400 9.38137000 19.05030000
O 10.21740000 15.46260000 15.70960000
H 8.85887000 14.50130000 16.76930000
H 10.02090000 17.14520000 16.19570000
O 6.44788000 12.84160000 7.08962000
H 7.66592000 11.51920000 7.87911000
H 6.96673000 14.47270000 7.84245000
O 8.23232000 4.89609000 1.87276000
H 9.31654000 3.70794000 2.66470000
H 7.55509000 3.96453000 0.57359600
O 1.49201000 1.08530000 19.26910000
H 2.35401000 1.98224000 20.52640000
H 23.74310000 1.31762000 19.65490000
O 11.52220000 2.45723000 18.46660000
H 10.86080000 1.90183000 16.85370000
H 13.27930000 3.16361000 18.13250000
O 3.99651000 2.67597000 15.03130000
H 1.88341000 3.89941000 15.07470000
H 3.82423000 1.82193000 16.94580000
O 22.44540000 10.32280000 22.86490000
H 21.67490000 11.61280000 21.85890000
H 23.64720000 11.12950000 -0.43185400
O 19.23840000 9.08214000 12.10040000
H 20.15360000 7.71289000 13.01020000
H 17.98130000 9.62690000 13.18200000
O 14.16470000 20.41890000 13.45930000
H 15.75830000 19.86660000 13.26070000
H 13.01770000 19.36940000 12.57520000
O 3.33520000 6.42488000 3.56654000
H 5.03387000 7.16476000 2.92632000
H 2.32849000 7.96029000 3.96468000
O 14.48450000 13.61290000 0.80584200
H 12.80690000 13.62010000 1.53606000
H 14.17490000 12.79570000 23.22210000
O 10.66860000 8.37648000 18.00080000
H 8.89279000 8.39103000 17.29840000
H 10.92740000 6.64360000 17.63200000
O 14.60060000 11.28620000 20.21050000
H 15.56940000 12.25750000 19.19410000
H 13.30690000 11.02610000 19.41600000
O 6.03978000 21.65640000 15.70190000
H 5.05521000 21.65350000 17.36160000
H 5.09866000 22.90880000 14.75670000
O 6.78934000 12.49730000 0.04619900
H 5.91287000 12.84650000 1.30755000
H 8.11572000 11.41630000 0.81750400
O 19.68080000 13.61080000 2.66610000
H 20.96700000 12.17570000 3.02193000
H 18.05690000 13.08270000 2.84678000
O 0.58634600 10.85480000 3.73636000
H 1.66852000 12.21630000 3.66265000
H 0.15833300 10.91390000 5.35983000
O 7.01753000 17.63590000 12.43990000
H 6.60465000 18.78380000 13.66900000
H 7.94406000 16.22940000 13.44740000
O 16.00790000 9.94214000 5.93122000
H 17.41680000 8.94764000 5.69684000
H 15.10030000 9.45640000 4.62840000
O 0.46402500 17.76190000 9.27933000
H -0.82920300 16.61130000 9.96238000
H 1.15684000 17.08960000 7.50038000
O 15.72090000 15.36490000 16.65860000
H 16.11790000 15.08080000 15.04970000
H 13.76140000 15.39330000 17.02650000
O 12.59570000 16.11860000 9.96969000
H 10.60500000 16.34690000 9.81034000
H 13.28540000 16.58790000 8.38825000
O 7.26682000 2.54439000 21.05830000
H 6.62987000 4.10452000 20.46910000
H 8.85191000 2.52311000 20.08440000
O 3.94234000 13.99430000 12.80940000
H 5.17663000 15.45090000 13.51140000
H 4.24815000 14.32160000 10.97100000
O 15.08130000 0.52034700 1.00495000
H 15.93800000 1.65664000 0.19031800
H 14.64400000 23.65290000 23.59510000
O 5.78242000 21.49270000 22.95670000
H 4.79559000 22.83680000 -1.26299000
H 7.32631000 21.96000000 22.03600000
O 8.35707000 17.03010000 20.80710000
H 7.11913000 18.21330000 21.74120000
H 7.91027000 15.31940000 21.71860000
O 14.36770000 4.62828000 9.70614000
H 15.85870000 3.87679000 9.19625000
H 14.26010000 4.26237000 11.16400000
O 1.29827000 4.01645000 0.36315200
H 23.79270000 4.85394000 0.26856600
H 2.45188000 5.23574000 1.40207000
O 16.57430000 3.32728000 20.05450000
H 17.43810000 1.67688000 19.43610000
H 17.87970000 4.17647000 20.99670000
O 11.11750000 20.16850000 17.50030000
H 11.86960000 20.54540000 15.92210000
H 9.58049000 21.11820000 17.97630000
O 8.36112000 0.52426900 8.97581000
H 9.80424000 -0.28131000 8.38839000
H 6.79089000 -0.47782700 8.69451000
O 13.05260000 18.41720000 0.14877300
H 12.37240000 17.46160000 22.93300000
H 13.98160000 16.98820000 1.12738000
O 22.90890000 1.99276000 10.95840000
H -0.53969700 3.42018000 10.11780000
H 24.19020000 1.57833000 12.13700000
O 19.41760000 0.87527400 6.45287000
H 19.85570000 -0.41727300 5.19046000
H 21.05750000 1.72947000 6.99388000
O 3.08578000 15.73700000 3.54406000
H 6.34670000 17.49480000 4.87687000
H 2.24985000 17.04970000 3.00017000
O 10.04770000 9.52486000 3.59246000
H 9.62056000 10.38530000 5.08193000
H 9.09824000 7.76225000 3.26253000
O 13.83710000 10.39820000 13.41430000
H 14.07320000 12.19890000 13.88090000
H 13.13350000 9.49033000 14.99840000
O 18.02550000 17.23990000 6.60134000
H 19.67680000 15.84290000 5.04127000
H 18.02440000 18.79050000 5.55846000
O 3.80945000 21.87090000 7.94135000
H 4.30078000 22.12730000 6.22825000
H 3.69043000 20.24920000 8.34044000
O 18.96240000 19.13050000 11.73090000
H 19.57100000 17.35300000 12.85450000
H 18.12760000 18.38850000 10.47990000
O 21.32270000 15.07820000 20.50630000
H 19.63090000 14.95160000 20.68460000
H 21.71870000 14.85970000 18.91290000
O 2.51573000 19.31420000 18.99520000
H 1.19325000 20.41040000 19.03400000
H 3.50289000 19.71560000 20.64930000
O 5.22899000 7.69435000 20.52860000
H 4.25711000 8.11221000 19.42220000
H 6.29508000 9.58933000 21.55690000
    
    &END COORD
  &END SUBSYS
  &DFT
    BASIS_SET_FILE_NAME  BASIS_SET
    POTENTIAL_FILE_NAME  GTH_POTENTIALS
    &QS
      EPS_DEFAULT 1.0E-10
    &END QS
    &MGRID
      NGRIDS 4
      CUTOFF 135
      REL_CUTOFF 115
    &END MGRID
    &XC
      &XC_FUNCTIONAL PADE
      &END XC_FUNCTIONAL
    &END XC
    &SCF
      SCF_GUESS ATOMIC
      EPS_SCF 1.0E-7
      MAX_SCF 300
      &DIAGONALIZATION  ON
        ALGORITHM STANDARD
      &END DIAGONALIZATION
      &MIXING  T
        METHOD BROYDEN_MIXING
        ALPHA 0.4
        NBROYDEN 8
      &END MIXING
    &END SCF
  &END DFT
  &PRINT
    &FORCES ON
    &END FORCES
  &END PRINT
&END FORCE_EVAL
