&GLOBAL
  PROJECT H2O_bulk
  RUN_TYPE ENERGY_FORCE
  PRINT_LEVEL LOW
&END GLOBAL
&FORCE_EVAL
  METHOD Quickstep
  &SUBSYS
    &KIND H
      ELEMENT   H
      BASIS_SET DZVP-GTH-PBE
      POTENTIAL GTH-PBE-q1
    &END KIND
    &KIND O
      ELEMENT   O
      BASIS_SET DZVP-GTH-PBE
      POTENTIAL GTH-PBE-q6
    &END KIND
    &CELL
      A     46.937    0.000000000    0.000000000
      B     0.000000000    44.121    0.000000000
      C     0.000000000    0.000000000    45.182
    &END CELL
    &COORD

O 0.35221700 8.86912000 16.13530000
H 1.77637000 7.81690000 15.92350000
H 22.23320000 8.08566000 17.49920000
O 15.71630000 22.78520000 16.05900000
H 15.58230000 1.15419000 17.07320000
H 15.81490000 0.16208200 14.45920000
O 14.57480000 15.84210000 9.97428000
H 12.99120000 16.42180000 9.05166000
H 14.41470000 14.22740000 10.33900000
O 1.58579000 22.53010000 1.49450000
H 0.83522000 22.11360000 -0.02526900
H 2.78909000 0.89294800 1.41108000
O 6.47582000 12.47750000 21.40430000
H 7.82218000 12.54000000 19.99440000
H 6.25055000 14.47750000 22.26440000
O 12.87150000 10.51450000 10.45930000
H 12.14230000 10.30800000 8.66472000
H 14.19140000 9.33256000 10.63300000
O 22.26860000 8.91483000 11.03940000
H 21.96570000 10.85430000 11.57980000
H 22.10430000 8.17683000 12.68730000
O 6.51139000 20.34930000 14.62930000
H 5.09700000 19.69190000 13.63060000
H 6.33657000 22.10360000 14.24520000
O 10.21900000 12.81270000 18.31780000
H 10.51140000 11.24980000 17.75460000
H 10.85260000 13.99880000 17.02200000
O 19.10380000 19.34810000 7.09102000
H 19.22310000 18.27670000 5.66572000
H 17.48540000 18.95600000 8.04430000
O 20.67110000 20.22570000 15.37500000
H 21.23190000 18.88060000 14.03440000
H 18.77430000 19.82380000 15.70800000
O 6.09711000 22.23340000 6.76529000
H 6.52236000 22.24990000 8.56628000
H 4.62612000 21.14920000 6.75558000
O 1.79435000 18.90610000 11.05320000
H 1.20275000 20.28150000 10.03900000
H 2.78117000 18.09890000 9.95946000
O 20.80890000 13.23060000 16.42750000
H 19.43270000 13.99180000 15.84690000
H 21.38610000 12.24280000 14.92310000
O 10.64510000 17.87580000 17.51020000
H 9.96966000 18.47400000 15.88960000
H 10.00620000 19.08700000 18.73740000
O 2.80920000 14.88520000 7.91552000
H 4.40908000 15.29860000 7.20003000
H 1.70033000 14.25140000 6.59396000
O 19.47800000 1.71707000 23.09490000
H 19.50230000 1.66442000 1.81951000
H 20.24290000 0.05740700 22.98720000
O 17.37690000 1.53558000 4.87246000
H 15.93350000 2.35882000 4.96838000
H 17.00090000 0.12609000 3.60419000
O 17.17300000 7.56858000 11.64900000
H 17.82290000 7.64018000 13.72060000
H 18.59550000 7.95398000 10.91450000
O 8.65484000 9.26983000 2.16530000
H 10.63810000 9.95429000 2.44291000
H 7.97144000 10.45300000 0.89749100
O 11.81290000 6.89804000 21.14810000
H 10.07330000 5.96017000 21.53610000
H 11.47520000 7.79899000 19.61330000
O 4.51164000 19.90080000 19.08800000
H 5.70819000 19.67600000 17.71020000
H 3.50322000 17.84770000 19.01200000
O 2.64355000 1.36294000 19.62380000
H 1.85474000 1.31838000 17.95980000
H 2.78234000 22.73680000 20.16550000
O 22.97360000 6.06215000 20.47420000
H 0.60913200 4.39252000 20.21720000
H 21.59760000 5.67570000 21.83510000
O 16.05370000 16.11540000 15.22400000
H 15.23960000 15.60830000 13.66060000
H 15.70480000 17.75170000 15.44270000
O 19.16910000 7.77048000 3.31864000
H 21.41570000 5.20848000 5.42494000
H 19.77590000 7.93280000 1.86503000
O 14.34730000 12.15330000 21.63750000
H 15.46910000 13.23830000 22.29220000
H 13.63800000 13.22690000 20.18810000
O 10.45500000 1.65609000 16.14180000
H 10.91190000 3.37410000 15.76070000
H 11.89490000 1.27579000 17.33880000
O 4.91382000 4.04311000 3.71052000
H 5.93939000 5.04508000 2.75343000
H 5.92014000 3.69974000 5.09779000
O 15.85820000 17.38440000 21.66600000
H 16.78580000 19.06240000 20.82090000
H 14.32570000 18.08350000 22.10080000
O 11.36330000 21.24950000 21.53110000
H 9.58931000 21.76950000 22.30030000
H 12.31070000 22.60410000 20.90310000
O 5.33102000 17.30910000 0.57375900
H 5.25202000 18.68000000 22.21970000
H 6.51857000 17.96530000 1.75433000
O 7.49985000 22.49570000 1.25917000
H 7.31221000 22.07730000 3.11924000
H 7.84125000 1.31460000 1.21977000
O 19.23610000 9.64342000 21.37650000
H 17.83080000 10.76030000 22.10960000
H 20.60160000 10.45690000 21.24210000
O 22.94520000 5.58793000 5.99807000
H 23.42130000 7.29798000 6.20603000
H 1.16266000 4.69755000 4.74448000
O 1.16280000 10.48000000 22.29750000
H 3.04436000 10.61650000 22.09430000
H 0.88608100 8.85764000 21.88760000
O 16.39570000 1.66052000 10.74810000
H 16.74350000 3.22973000 11.29350000
H 17.57050000 1.39373000 9.40341000
O 1.61735000 11.12850000 4.46048000
H 2.99661000 10.07480000 5.02723000
H 0.67189100 10.38770000 2.98182000
O 6.05052000 14.58810000 12.00780000
H 4.59156000 15.22390000 12.91430000
H 5.52735000 13.84230000 10.45270000
O 4.81807000 1.82589000 11.53050000
H 5.24720000 3.32125000 12.14640000
H 3.24003000 2.46044000 10.89170000
O 9.64632000 4.82858000 6.99186000
H 10.99630000 5.11957000 6.09870000
H 9.61407000 3.58060000 8.40174000
O 12.77850000 15.72450000 3.01113000
H 10.91210000 15.70540000 2.86890000
H 13.15190000 13.49880000 2.99071000
O 23.07250000 16.23200000 0.34405200
H -0.05529400 14.73390000 22.65640000
H 1.61695000 16.75400000 1.11691000
O 8.91929000 10.87240000 14.15090000
H 10.42140000 11.06360000 13.80260000
H 8.36045000 12.21400000 12.95500000
O 7.25258000 3.75453000 20.01070000
H 8.12410000 2.11063000 19.53660000
H 5.56816000 3.28203000 19.82350000
O 19.82300000 14.16260000 10.40910000
H 20.64660000 16.02690000 9.29121000
H 19.16260000 13.02530000 9.15590000
O 13.09720000 7.02360000 16.13830000
H 14.60660000 7.14931000 16.84620000
H 13.11230000 8.08725000 14.96520000
O 17.11210000 12.33570000 5.85169000
H 17.13380000 13.82850000 4.83062000
H 18.13120000 10.89100000 4.89197000
O 7.74290000 16.21770000 5.45790000
H 7.98539000 14.65490000 6.25278000
H 8.83827000 17.53960000 6.51108000
O 18.28260000 6.78887000 17.21680000
H 19.11220000 4.99262000 17.27600000
H 19.03110000 7.71408000 18.70320000
O 14.16810000 2.44296000 21.72570000
H 14.06160000 3.83269000 20.44190000
H 15.48350000 2.72082000 22.87040000
O 6.12099000 6.28250000 15.06730000
H 7.06037000 5.62560000 16.72570000
H 7.25253000 7.25563000 14.18530000
O 9.19891000 18.41520000 9.55202000
H 8.83467000 16.89850000 10.49660000
H 9.51770000 19.66830000 10.94390000
O 5.57632000 8.13129000 8.74859000
H 7.26383000 6.61547000 8.30670000
H 6.07410000 8.65296000 10.37840000
O 22.94540000 3.52821000 10.53820000
H 22.90140000 5.35595000 10.18900000
H 23.09490000 2.52561000 9.30670000
O 22.30090000 1.93800000 15.82040000
H 22.15090000 1.61921000 13.94290000
H 21.79930000 0.40875300 16.19230000
O 22.99190000 22.98890000 7.34161000
H 0.51375900 0.84712000 5.71288000
H 21.57890000 21.78170000 6.59955000
O 13.25100000 21.49150000 4.53497000
H 13.61870000 19.80380000 4.91302000
H 12.03680000 21.49670000 3.26034000
O 14.36100000 7.13939000 3.34637000
H 16.21500000 6.54919000 2.82111000
H 13.63310000 7.44204000 1.75605000
O 9.25916000 11.61740000 6.86955000
H 9.24036000 11.87350000 4.64894000
H 8.86428000 9.95517000 7.01642000
O 11.20270000 1.12038000 9.64316000
H 11.78710000 22.59230000 8.83069000
H 11.80530000 0.90082600 11.22290000
O 18.80010000 16.54410000 2.68501000
H 17.57240000 16.21280000 1.57603000
H 20.29320000 16.38570000 1.74476000
O 21.47410000 20.50520000 20.43900000
H 21.34890000 18.71240000 21.05910000
H 21.91790000 20.33520000 18.85070000
O 2.29841000 14.95290000 18.41450000
H 3.47975000 13.95350000 19.49780000
H 2.47083000 14.36780000 16.64580000
    
    &END COORD
  &END SUBSYS
  &DFT
    BASIS_SET_FILE_NAME  BASIS_SET
    POTENTIAL_FILE_NAME  GTH_POTENTIALS
    &QS
      EPS_DEFAULT 1.0E-10
    &END QS
    &MGRID
      NGRIDS 4
      CUTOFF 135
      REL_CUTOFF 115
    &END MGRID
    &XC
      &XC_FUNCTIONAL PADE
      &END XC_FUNCTIONAL
    &END XC
    &SCF
      SCF_GUESS ATOMIC
      EPS_SCF 1.0E-7
      MAX_SCF 300
      &DIAGONALIZATION  ON
        ALGORITHM STANDARD
      &END DIAGONALIZATION
      &MIXING  T
        METHOD BROYDEN_MIXING
        ALPHA 0.4
        NBROYDEN 8
      &END MIXING
    &END SCF
  &END DFT
  &PRINT
    &FORCES ON
    &END FORCES
  &END PRINT
&END FORCE_EVAL
