&GLOBAL
  PROJECT H2O_bulk
  RUN_TYPE ENERGY_FORCE
  PRINT_LEVEL LOW
&END GLOBAL
&FORCE_EVAL
  METHOD Quickstep
  &SUBSYS
    &KIND H
      ELEMENT   H
      BASIS_SET DZVP-GTH-PBE
      POTENTIAL GTH-PBE-q1
    &END KIND
    &KIND O
      ELEMENT   O
      BASIS_SET DZVP-GTH-PBE
      POTENTIAL GTH-PBE-q6
    &END KIND
    &CELL
      A     46.937    0.000000000    0.000000000
      B     0.000000000    44.121    0.000000000
      C     0.000000000    0.000000000    45.182
    &END CELL
    &COORD

O 1.08344000 4.93827000 12.20480000
H -0.67181400 5.02838000 11.64040000
H 0.95575300 3.38852000 13.15740000
O 15.22870000 -0.14716300 -0.51255100
H 16.64500000 -0.80118400 0.44631900
H 14.40480000 1.16533000 0.43708800
O 20.93880000 10.05750000 14.74860000
H 20.60270000 9.37845000 16.41010000
H 22.38540000 11.23120000 14.76300000
O 12.04270000 4.70809000 20.46030000
H 13.72440000 4.13938000 19.97690000
H 12.48860000 5.94348000 21.70900000
O 5.36052000 7.48951000 16.68710000
H 6.83903000 8.43899000 16.17290000
H 4.12749000 8.04363000 15.47940000
O 5.96464000 8.24516000 2.91270000
H 4.13381000 8.25408000 2.91842000
H 6.40104000 7.95794000 4.66768000
O 21.03040000 9.46930000 20.28310000
H 20.49060000 9.06868000 21.98000000
H 22.86360000 9.48434000 20.38490000
O 22.80100000 19.29670000 17.21550000
H 23.11390000 20.73930000 18.30020000
H 24.35090000 18.80770000 16.33490000
O 0.82586300 7.48301000 3.85210000
H 0.75684500 6.05780000 2.70066000
H -0.16042400 7.54182000 5.37758000
O 11.96810000 21.79110000 7.88141000
H 11.50350000 20.17420000 8.60677000
H 13.26240000 22.50530000 8.97473000
O 19.64740000 2.66046000 4.39848000
H 21.02220000 1.52865000 4.00369000
H 18.43880000 1.65527000 5.38343000
O 3.04584000 14.67470000 23.43580000
H 3.56395000 15.81030000 22.09720000
H 4.63094000 13.77420000 23.75460000
O 0.53872600 20.30260000 7.72279000
H -0.47238800 18.81200000 7.43259000
H 2.22158000 19.66900000 8.11582000
O 8.59951000 -0.09162600 3.02584000
H 7.39690000 0.29201600 1.67709000
H 7.68495000 -0.89973100 4.39306000
O 8.72847000 6.50855000 7.24579000
H 9.93168000 6.78547000 8.61834000
H 8.36301000 4.73217000 7.25793000
O 21.43690000 16.53090000 5.56758000
H 22.60470000 15.23000000 4.96001000
H 20.64290000 16.94980000 3.96638000
O 11.75030000 7.74180000 11.13160000
H 10.86530000 8.71457000 12.40330000
H 13.31700000 8.69249000 10.94170000
O 18.66870000 7.57341000 5.68844000
H 17.33490000 7.17935000 6.86161000
H 19.12890000 6.03513000 4.79736000
O 15.20120000 11.39530000 12.13040000
H 15.26980000 11.43750000 13.96450000
H 16.20930000 12.75670000 11.43590000
O 13.86320000 23.75030000 18.73690000
H 14.96030000 24.66480000 19.91250000
H 12.51170000 24.90000000 18.78500000
O 20.31510000 22.77880000 0.34609500
H 20.35100000 22.99840000 -1.49485000
H 21.65030000 23.79430000 1.09391000
O 7.86658000 13.03440000 0.45589300
H 9.57602000 12.40860000 0.11177000
H 7.61983000 12.28410000 2.08243000
O 4.40733000 17.59640000 10.04920000
H 6.20866000 17.61390000 9.98076000
H 3.96275000 15.80040000 9.80136000
O 12.83670000 6.36464000 1.38007000
H 11.02430000 6.56530000 1.36384000
H 13.27390000 6.38465000 3.14048000
O 16.13010000 23.14080000 11.38510000
H 17.66310000 22.27720000 11.86790000
H 16.73660000 24.75310000 10.78070000
O 15.36720000 3.84194000 9.35848000
H 13.98190000 4.44751000 10.37370000
H 14.70460000 3.39795000 7.71043000
O 0.53992500 12.96090000 13.91160000
H 1.29323000 12.00610000 12.60410000
H 0.97566800 14.74840000 13.40930000
O 13.23870000 16.10090000 8.67324000
H 13.54850000 14.35520000 9.02754000
H 13.90970000 16.51990000 7.01735000
O 9.55284000 10.66070000 15.75060000
H 9.98843000 12.08540000 14.66500000
H 10.87940000 10.38100000 16.98750000
O 12.91330000 1.89040000 4.95293000
H 11.37210000 2.06929000 3.98640000
H 12.79230000 0.15649800 5.60155000
O 6.56894000 16.27160000 17.95000000
H 7.37965000 17.13700000 19.36500000
H 7.77367000 14.96530000 17.60090000
O 2.66939000 18.17800000 14.80640000
H 4.04375000 17.53380000 15.84470000
H 3.32350000 18.57830000 13.14250000
O 3.95128000 8.12872000 9.21052000
H 5.43135000 7.09921000 9.31108000
H 2.59635000 7.18153000 10.17160000
O 21.05210000 2.49977000 15.89780000
H 20.67500000 4.11897000 15.15660000
H 20.77300000 1.35292000 14.48880000
O 10.66860000 15.16770000 13.07460000
H 11.97540000 16.27620000 13.73150000
H 10.97160000 15.32170000 11.24320000
O 14.34800000 16.71440000 2.99847000
H 13.32610000 18.05900000 2.26132000
H 16.07500000 16.86750000 2.42943000
O 17.08010000 4.04030000 19.33210000
H 17.92470000 3.35911000 20.78410000
H 18.49400000 4.28858000 18.22920000
O 13.50840000 18.96000000 15.51410000
H 14.21940000 20.59490000 15.04920000
H 14.73630000 18.17410000 16.62830000
O 5.77430000 2.70801000 18.68990000
H 5.73186000 4.34378000 17.81930000
H 7.06859000 1.99154000 17.74120000
O 8.86348000 17.62010000 22.32910000
H 8.69081000 16.61180000 23.83130000
H 10.33180000 18.60640000 22.78550000
O 10.13150000 2.42548000 15.95890000
H 9.48839000 3.18657000 14.42480000
H 10.12690000 3.61677000 17.39640000
O 5.68233000 2.88994000 24.15160000
H 5.13906000 4.43567000 24.94890000
H 5.58130000 3.17987000 22.32970000
O 0.73998300 5.67152000 23.58430000
H 1.39986000 4.40172000 22.46250000
H 1.07983000 7.27367000 22.78420000
O 20.67810000 5.85235000 11.85460000
H 20.99200000 7.45405000 12.72570000
H 19.67130000 6.38934000 10.45320000
O 0.35407100 24.21740000 4.08418000
H 0.46750800 22.78100000 5.28683000
H 1.98300000 25.00810000 4.31834000
O 21.59290000 23.59740000 20.02870000
H 23.18010000 24.51060000 20.22500000
H 20.82440000 24.27950000 18.52540000
O 11.66480000 20.84440000 0.86736800
H 12.75380000 22.19020000 0.24803400
H 10.40000000 21.69330000 1.88440000
O 2.76053000 13.07140000 8.84433000
H 1.92735000 13.16140000 7.19143000
H 3.73438000 11.52790000 8.64731000
O 1.79003000 0.64436600 21.40020000
H 2.29523000 0.26581300 23.09380000
H 3.39821000 0.99503700 20.57800000
O 17.18930000 13.42460000 21.26150000
H 16.77150000 14.72170000 20.04310000
H 18.75770000 12.58620000 20.86970000
O 14.46230000 9.53654000 17.36470000
H 15.52600000 8.50048000 16.31610000
H 15.45820000 9.71999000 18.86590000
O 8.60441000 20.80020000 14.34950000
H 9.98206000 20.28660000 15.44030000
H 8.15172000 19.12320000 13.86090000
O 2.72676000 24.69870000 13.70100000
H 4.26505000 24.22820000 12.86680000
H 3.23829000 24.51960000 15.45860000
O 8.48069000 25.16490000 10.55820000
H 8.21666000 24.27530000 12.14130000
H 10.22150000 24.82700000 10.15350000
O 4.78488000 1.18708000 6.72867000
H 6.07402000 0.78317700 7.96555000
H 4.27562000 2.88516000 7.09076000
O 18.02090000 22.18160000 5.72474000
H 16.84270000 21.20990000 6.68220000
H 19.44580000 21.09670000 5.48092000
O 1.73878000 10.52250000 20.91160000
H 3.09806000 10.74940000 19.71540000
H 1.52689000 12.05340000 21.93420000
O 19.27000000 15.04430000 10.56250000
H 20.08870000 15.68660000 9.05243000
H 20.50830000 14.84510000 11.86410000
O 21.66100000 22.73840000 12.56120000
H 22.39110000 21.28710000 13.38440000
H 22.94250000 23.23320000 11.35910000
O 17.62930000 18.88690000 19.07890000
H 17.24140000 20.54410000 18.40090000
H 19.36230000 18.52250000 18.49760000
O 19.76020000 5.44319000 24.06790000
H 21.28690000 4.41436000 24.24680000
H 18.62290000 4.92060000 25.39580000
O 0.77315700 13.00520000 3.73767000
H 1.67417000 13.43740000 2.36791000
H 0.27673000 11.20200000 3.70198000
O 19.40400000 17.51520000 0.73259300
H 19.04570000 16.72360000 -0.86399900
H 20.01870000 19.20460000 0.33236800
O 12.72110000 11.61730000 24.14280000
H 14.21300000 12.52740000 24.59140000
H 13.35150000 9.93929000 23.86030000
    
    &END COORD
  &END SUBSYS
  &DFT
    BASIS_SET_FILE_NAME  BASIS_SET
    POTENTIAL_FILE_NAME  GTH_POTENTIALS
    &QS
      EPS_DEFAULT 1.0E-10
    &END QS
    &MGRID
      NGRIDS 4
      CUTOFF 135
      REL_CUTOFF 115
    &END MGRID
    &XC
      &XC_FUNCTIONAL PADE
      &END XC_FUNCTIONAL
    &END XC
    &SCF
      SCF_GUESS ATOMIC
      EPS_SCF 1.0E-7
      MAX_SCF 300
      &DIAGONALIZATION  ON
        ALGORITHM STANDARD
      &END DIAGONALIZATION
      &MIXING  T
        METHOD BROYDEN_MIXING
        ALPHA 0.4
        NBROYDEN 8
      &END MIXING
    &END SCF
  &END DFT
  &PRINT
    &FORCES ON
    &END FORCES
  &END PRINT
&END FORCE_EVAL
