&GLOBAL
  PROJECT H2O_bulk
  RUN_TYPE ENERGY_FORCE
  PRINT_LEVEL LOW
&END GLOBAL
&FORCE_EVAL
  METHOD Quickstep
  &SUBSYS
    &KIND H
      ELEMENT   H
      BASIS_SET DZVP-GTH-PBE
      POTENTIAL GTH-PBE-q1
    &END KIND
    &KIND O
      ELEMENT   O
      BASIS_SET DZVP-GTH-PBE
      POTENTIAL GTH-PBE-q6
    &END KIND
    &CELL
      A     46.937    0.000000000    0.000000000
      B     0.000000000    44.121    0.000000000
      C     0.000000000    0.000000000    45.182
    &END CELL
    &COORD

O 15.87730000 11.30790000 22.13400000
H 14.81700000 12.80820000 21.84840000
H 14.48480000 10.38930000 22.87650000
O 17.20640000 17.07190000 8.94725000
H 17.27310000 15.53940000 9.97452000
H 15.53390000 17.43820000 9.37686000
O 20.22750000 14.14650000 1.17974000
H 18.84800000 13.13980000 0.25045600
H 21.04720000 15.17910000 -0.05906100
O 22.83730000 2.83390000 19.60080000
H 21.40470000 2.42317000 18.61530000
H 24.13710000 2.05492000 18.75580000
O 21.24410000 9.43970000 21.72060000
H 21.62740000 8.71841000 23.45710000
H 19.62490000 10.04510000 21.56890000
O 6.42186000 12.20290000 21.59490000
H 5.12958000 12.20270000 20.34880000
H 7.88057000 13.04760000 20.88830000
O 4.43816000 9.06551000 15.20300000
H 4.00293000 11.10360000 16.34400000
H 4.41722000 7.66227000 16.30680000
O 7.36055000 19.96040000 19.39550000
H 7.82424000 18.47920000 20.24880000
H 5.87018000 20.54400000 20.17980000
O 16.67520000 7.47527000 12.97180000
H 17.12400000 9.60018000 11.15840000
H 17.84300000 8.15410000 14.13060000
O 14.54470000 16.74960000 21.06320000
H 15.47730000 17.31980000 19.36310000
H 13.95300000 18.19000000 21.89150000
O 19.80230000 7.17358000 2.87367000
H 20.64970000 5.44788000 2.36364000
H 20.02070000 7.80680000 4.54657000
O 7.80099000 12.94040000 8.98508000
H 6.51462000 14.31220000 8.08022000
H 7.03205000 11.23370000 8.55985000
O 7.79128000 22.24490000 10.09680000
H 7.97627000 23.85650000 10.90240000
H 7.63212000 21.22570000 11.82430000
O 16.33710000 23.60820000 2.53684000
H 15.26450000 22.11360000 2.38573000
H 17.54480000 22.94070000 1.26067000
O 0.81448400 19.45190000 2.37450000
H 2.31951000 19.34920000 3.23401000
H -0.66367900 19.10010000 3.28378000
O 21.31340000 21.75460000 23.51340000
H 22.44690000 20.47280000 24.09080000
H 20.74890000 21.46170000 21.89080000
O 13.79860000 19.07750000 3.75276000
H 14.99630000 18.97570000 4.99853000
H 13.35310000 17.37320000 3.37461000
O 8.21975000 24.91120000 17.35200000
H 9.64170000 24.01840000 16.41280000
H 7.59795000 23.16420000 17.45440000
O 10.81070000 10.56950000 24.40600000
H 9.08404000 11.01980000 24.31710000
H 10.35340000 8.75236000 24.28470000
O 5.38179000 7.65718000 23.31970000
H 7.54683000 7.04905000 23.62290000
H 5.46962000 9.40503000 22.98460000
O 13.00760000 23.27940000 13.90030000
H 12.83990000 25.08660000 13.74620000
H 12.55350000 22.67650000 12.29240000
O 22.73580000 3.17939000 0.97048600
H 22.47430000 1.48498000 1.22034000
H 22.91280000 3.71247000 -0.98644400
O 14.33380000 3.66363000 20.02860000
H 15.82760000 3.16823000 19.18330000
H 14.77220000 4.07245000 21.81080000
O 14.67220000 13.87770000 13.32790000
H 12.91110000 13.91330000 13.46300000
H 14.80320000 13.63860000 11.38040000
O 5.71019000 4.42301000 18.84550000
H 6.66892000 2.98436000 18.63600000
H 5.82249000 5.10875000 20.65160000
O 2.48490000 16.29050000 22.25930000
H 5.65438000 14.69900000 23.41090000
H 2.21021000 16.80740000 24.03070000
O 17.52530000 11.28850000 9.42960000
H 16.43180000 11.39760000 8.02751000
H 19.11360000 11.36180000 8.40144000
O 12.97240000 20.22220000 9.79343000
H 13.69100000 21.57680000 8.94350000
H 11.01510000 20.64060000 9.67502000
O 13.15940000 12.95250000 7.37708000
H 11.43500000 12.53210000 7.84473000
H 12.56980000 13.43450000 5.77778000
O 15.17640000 1.02170000 7.16646000
H 16.45800000 1.08774000 5.78832000
H 13.78140000 1.99099000 6.49026000
O 22.25770000 16.57390000 20.28740000
H 21.77710000 15.38150000 18.99900000
H 23.99190000 16.61890000 20.64940000
O 22.11550000 18.20090000 6.65173000
H 22.60450000 19.77210000 7.41609000
H 20.36070000 18.33170000 6.77787000
O 11.51330000 14.64960000 2.63859000
H 9.88465000 14.54040000 3.29499000
H 11.87980000 13.38940000 1.34398000
O 10.24770000 5.44862000 23.50450000
H 11.86020000 5.50775000 22.28780000
H 10.01330000 3.84135000 24.27250000
O 23.42250000 2.80150000 11.73940000
H 24.13910000 4.36844000 11.26610000
H 21.64820000 2.64013000 11.52640000
O 21.58540000 9.19772000 7.11271000
H 22.61460000 8.26678000 8.38766000
H 22.49080000 10.78110000 7.11899000
O 0.74797500 7.45812000 10.94960000
H 1.34269000 7.77699000 12.67270000
H 2.33682000 7.40743000 10.07280000
O 6.71409000 15.63490000 4.48884000
H 5.72809000 14.10400000 4.34872000
H 5.46672000 16.53660000 5.86742000
O 22.81490000 12.34020000 17.48640000
H 21.30070000 11.73730000 16.78230000
H 23.71330000 11.09280000 18.42430000
O 24.03630000 21.52460000 9.97690000
H 23.14940000 22.97490000 9.84229000
H 23.74790000 20.57990000 12.12780000
O 12.96920000 21.94150000 22.23520000
H 12.40810000 23.25530000 23.27270000
H 11.57760000 22.45380000 20.97760000
O 12.39830000 3.88802000 15.20030000
H 12.65780000 3.93000000 17.02170000
H 12.74870000 5.34842000 14.23450000
O 9.24461000 14.43890000 13.61160000
H 8.89092000 13.76040000 11.94030000
H 8.21816000 15.82640000 13.92480000
O 18.44360000 1.13720000 16.87840000
H 19.24400000 -0.25730700 17.85560000
H 18.40160000 1.39074000 15.04990000
O 17.42970000 10.95130000 17.01290000
H 16.85200000 10.61840000 18.67070000
H 16.71890000 12.10800000 15.86340000
O 23.61730000 13.77280000 4.90765000
H 23.03010000 15.63180000 4.81853000
H 23.39010000 13.32760000 3.17746000
O 8.22000000 18.65530000 0.23803800
H 7.70044000 17.71410000 1.75768000
H 9.99558000 19.25800000 0.61497300
O 1.89558000 1.56143000 16.19340000
H 3.56696000 2.16943000 16.27650000
H 1.51074000 2.33437000 14.57890000
O 9.15592000 3.15248000 11.32780000
H 8.66381000 4.86189000 11.30070000
H 10.63010000 3.20775000 12.59920000
O 18.01200000 2.70812000 11.88270000
H 17.09590000 1.77194000 10.53210000
H 17.38960000 4.35971000 12.18230000
O 3.12465000 13.90650000 17.16840000
H 3.64897000 15.41380000 15.53280000
H 1.29137000 13.75760000 17.34190000
O 7.06773000 7.97304000 10.42130000
H 5.86113000 6.83876000 9.70168000
H 6.06012000 8.67906000 11.84150000
O 15.36550000 18.47740000 16.03180000
H 14.50010000 19.92590000 15.24010000
H 14.87470000 16.75800000 15.54170000
O 5.24410000 18.59590000 14.97690000
H 3.60476000 19.76300000 14.90890000
H 6.33458000 19.31060000 16.69820000
O 3.37629000 10.96990000 6.24182000
H 3.27279000 9.63139000 5.12334000
H 2.40809000 12.53440000 5.71250000
O 4.03324000 4.91582000 7.71720000
H 3.47427000 4.84818000 5.56879000
H 3.44901000 3.47530000 8.64244000
O 10.10380000 14.77270000 19.48960000
H 11.70220000 15.88510000 19.99240000
H 10.27900000 13.85360000 17.93490000
O 20.15460000 19.87390000 17.41950000
H 20.83080000 18.82620000 18.79340000
H 18.60140000 19.16230000 16.92920000
O 2.94525000 6.67690000 3.23662000
H 4.25159000 6.54424000 1.52705000
H 1.28057000 6.23700000 2.90816000
O 9.60439000 3.54224000 6.26220000
H 9.41188000 3.31757000 8.57619000
H 7.67384000 4.95279000 5.62451000
O 15.83610000 4.96723000 0.65359900
H 17.20400000 6.00034000 1.47894000
H 15.62060000 3.52746000 2.03582000
O 3.96378000 18.92170000 7.60729000
H 4.84051000 19.97900000 8.85296000
H 2.45628000 18.71280000 8.52818000
O 9.76226000 0.91147300 1.73298000
H 9.44427000 1.82800000 3.28183000
H 8.49226000 -0.23598100 2.29590000
O 24.60000000 20.82870000 15.08120000
H 24.93770000 22.13550000 16.28410000
H 22.66970000 19.58830000 15.15110000
    
    &END COORD
  &END SUBSYS
  &DFT
    BASIS_SET_FILE_NAME  BASIS_SET
    POTENTIAL_FILE_NAME  GTH_POTENTIALS
    &QS
      EPS_DEFAULT 1.0E-10
    &END QS
    &MGRID
      NGRIDS 4
      CUTOFF 135
      REL_CUTOFF 115
    &END MGRID
    &XC
      &XC_FUNCTIONAL PADE
      &END XC_FUNCTIONAL
    &END XC
    &SCF
      SCF_GUESS ATOMIC
      EPS_SCF 1.0E-7
      MAX_SCF 300
      &DIAGONALIZATION  ON
        ALGORITHM STANDARD
      &END DIAGONALIZATION
      &MIXING  T
        METHOD BROYDEN_MIXING
        ALPHA 0.4
        NBROYDEN 8
      &END MIXING
    &END SCF
  &END DFT
  &PRINT
    &FORCES ON
    &END FORCES
  &END PRINT
&END FORCE_EVAL
