&GLOBAL
  PROJECT H2O_bulk
  RUN_TYPE ENERGY_FORCE
  PRINT_LEVEL LOW
&END GLOBAL
&FORCE_EVAL
  METHOD Quickstep
  &SUBSYS
    &KIND H
      ELEMENT   H
      BASIS_SET DZVP-GTH-PBE
      POTENTIAL GTH-PBE-q1
    &END KIND
    &KIND O
      ELEMENT   O
      BASIS_SET DZVP-GTH-PBE
      POTENTIAL GTH-PBE-q6
    &END KIND
    &CELL
      A     46.937    0.000000000    0.000000000
      B     0.000000000    44.121    0.000000000
      C     0.000000000    0.000000000    45.182
    &END CELL
    &COORD

O 2.14835000 16.27510000 22.54580000
H 1.66572000 17.70710000 21.59870000
H 0.69682300 16.10210000 23.23730000
O 12.57700000 15.58470000 23.11070000
H 11.74160000 16.28400000 21.76950000
H 11.42600000 14.65270000 23.82230000
O 9.72784000 19.55770000 3.66980000
H 8.44608000 19.61860000 2.58222000
H 9.65821000 17.67710000 4.22318000
O 5.33566000 12.52400000 5.39410000
H 5.01865000 11.26200000 4.21118000
H 4.28362000 11.77300000 6.74948000
O 5.51366000 17.84910000 12.57910000
H 7.24391000 17.66360000 12.13890000
H 4.68461000 15.94690000 12.98750000
O 12.23270000 4.99145000 6.26223000
H 11.45940000 5.23957000 4.77253000
H 14.05120000 5.54291000 6.25806000
O 15.61530000 3.23490000 21.30980000
H 15.49270000 0.77821200 22.33050000
H 14.70660000 3.05755000 19.72510000
O 7.84489000 2.98312000 20.69730000
H 9.51335000 3.54730000 20.13510000
H 6.64963000 3.82326000 19.89390000
O 10.51190000 18.50860000 13.92180000
H 11.22390000 19.16990000 10.83620000
H 12.17010000 18.92830000 14.29580000
O 1.46925000 9.68684000 7.68332000
H 1.85997000 8.13973000 8.18002000
H 0.36579300 10.21390000 9.04205000
O 18.25560000 10.29670000 15.00410000
H 17.76480000 12.77640000 15.22140000
H 16.63280000 9.87161000 14.64830000
O 12.21140000 8.17115000 17.43600000
H 13.14710000 9.62471000 16.64080000
H 12.99270000 6.84823000 16.60710000
O 10.57960000 20.11900000 9.24478000
H 10.74670000 19.23230000 7.54006000
H 11.54690000 21.55030000 9.04393000
O 10.67230000 12.10530000 10.21490000
H 9.26187000 11.12360000 9.62639000
H 11.34890000 12.54750000 8.60920000
O 13.80260000 8.36617000 12.14180000
H 12.71350000 9.49726000 11.23460000
H 13.56970000 6.92559000 10.99360000
O 24.65580000 23.32900000 17.19580000
H 24.08500000 25.13850000 17.80600000
H 23.37370000 22.98560000 15.94680000
O 10.49500000 24.74450000 16.13540000
H 11.21430000 22.95230000 16.35250000
H 8.44304000 24.62080000 15.96790000
O 23.25150000 6.84915000 14.27450000
H 21.51760000 7.20092000 14.59340000
H 23.68050000 7.65164000 12.89510000
O 18.31570000 10.53430000 9.03038000
H 18.53560000 9.56172000 10.43580000
H 16.66960000 10.61320000 9.18119000
O 9.80901000 17.99270000 19.19510000
H 10.18730000 19.31070000 20.28770000
H 8.16188000 17.30250000 19.04870000
O 15.21390000 20.98610000 15.88520000
H 14.59400000 21.30080000 17.53700000
H 14.91420000 22.36910000 14.84450000
O 5.33227000 12.57170000 13.74400000
H 5.90651000 13.06220000 15.42440000
H 6.04819000 10.82120000 14.16800000
O 22.11850000 15.94670000 14.07220000
H 23.03630000 15.52960000 15.61870000
H 20.52350000 15.82040000 14.58240000
O 14.56220000 22.18790000 21.30730000
H 12.79800000 22.68220000 21.10520000
H 14.49670000 21.60570000 22.97640000
O 23.71010000 9.27640000 19.95920000
H 22.30430000 9.24497000 20.94720000
H 23.97220000 10.71240000 19.30750000
O 21.23280000 1.13290000 1.23844000
H 27.96980000 0.33253800 -0.93947300
H 20.72320000 2.76574000 0.10276800
O 4.11220000 9.50548000 1.33398000
H 2.71635000 8.40132000 0.85888300
H 4.52462000 10.67330000 0.14417400
O 3.33414000 17.63240000 6.02420000
H 3.90836000 15.86330000 6.15718000
H 3.21492000 18.01620000 7.61949000
O 3.13428000 0.84227500 10.44840000
H 1.89785000 0.07548000 9.77472000
H 3.40054000 -0.19523600 11.98880000
O 0.45447300 18.60270000 10.47670000
H 1.90037000 19.33050000 10.88820000
H -0.15370300 17.48350000 11.63160000
O 23.21750000 3.95338000 18.65890000
H 22.22400000 5.01448000 19.43050000
H 23.17450000 4.72761000 17.05980000
O 7.91174000 9.79726000 20.49520000
H 8.55826000 9.77784000 18.88380000
H 6.45400000 8.51973000 20.20750000
O 16.38100000 10.19360000 22.42290000
H 16.32750000 11.72190000 23.59550000
H 16.00750000 10.96380000 20.78500000
O 21.97160000 21.83520000 7.61323000
H 22.37900000 21.13470000 9.16309000
H 21.30630000 20.71710000 6.49727000
O 7.67417000 6.81115000 14.58080000
H 8.54448000 6.46641000 13.16880000
H 9.28544000 6.55609000 15.51870000
O 8.49476000 7.14847000 9.21064000
H 7.02782000 6.16428000 8.21957000
H 10.01140000 7.35116000 8.06740000
O 0.50488800 11.82820000 12.09880000
H -1.12561000 12.47350000 12.86830000
H 1.82361000 12.75150000 12.52450000
O 15.33700000 0.51866100 12.42940000
H 16.49490000 1.59612000 11.33050000
H 14.16390000 -0.22806100 11.45950000
O 22.00060000 11.46190000 4.54541000
H 23.69130000 11.50590000 5.36693000
H 20.88230000 10.32110000 6.05937000
O 16.87430000 15.65970000 15.53420000
H 15.25930000 14.96480000 15.35560000
H 16.78050000 17.53410000 14.95020000
O 20.08050000 2.33350000 6.32136000
H 19.93180000 0.49972800 6.62553000
H 19.42820000 2.13773000 3.33343000
O 8.08559000 21.99620000 21.82320000
H 7.68224000 23.51430000 21.12640000
H 6.40041000 21.74340000 22.52410000
O 23.23480000 18.27540000 1.56832000
H 21.90890000 19.46640000 2.21369000
H 24.29090000 17.92600000 2.95525000
O 4.57590000 4.83092000 7.06989000
H 4.72091000 3.90952000 8.52309000
H 5.10756000 4.15703000 5.56680000
O 5.74414000 2.30277000 2.79663000
H 4.89942000 2.49497000 1.06385000
H 5.87817000 0.42502300 2.58356000
O 10.73950000 14.48210000 4.85797000
H 11.39550000 14.37860000 3.19289000
H 8.87788000 13.66870000 4.51031000
O 5.83064000 14.51170000 18.93710000
H 4.67379000 15.04420000 20.12740000
H 6.04501000 12.94670000 19.53120000
O 10.75810000 11.25040000 0.89510400
H 10.86500000 10.87600000 -0.78427200
H 10.39320000 9.40700000 1.47007000
O 8.56492000 6.95996000 2.82821000
H 7.88572000 5.20929000 2.78584000
H 7.12151000 8.25004000 2.70095000
O 10.50270000 1.35287000 9.50930000
H 8.95224000 0.58108200 9.30218000
H 10.83780000 2.55246000 8.19910000
O 3.53917000 6.92292000 19.04120000
H 3.47872000 7.06442000 17.32580000
H 2.10382000 7.74725000 19.66320000
O 12.24210000 13.27030000 15.03930000
H 11.32840000 14.79660000 15.69300000
H 11.70340000 12.84560000 13.54080000
O 14.54150000 19.68610000 1.47905000
H 12.56510000 19.99550000 1.81810000
H 14.60820000 17.76600000 1.41493000
O 1.85921000 3.25115000 23.46550000
H 1.54731000 4.24142000 21.91510000
H 2.03811000 4.70474000 24.48710000
O 21.03570000 14.15020000 -0.04694300
H 21.10270000 13.35440000 1.64721000
H 21.87420000 15.85820000 0.36074900
O 21.57200000 14.17190000 18.97900000
H 20.64980000 14.03940000 21.45540000
H 19.73890000 14.78740000 18.12080000
O 2.02773000 21.86480000 21.76350000
H 1.63161000 22.54510000 20.10480000
H 2.34166000 23.91810000 22.42840000
O 5.14662000 23.02210000 15.28940000
H 5.73871000 21.22220000 15.35910000
H 3.78224000 22.92250000 16.35890000
O 20.00880000 6.07955000 22.79930000
H 19.04170000 4.66669000 22.07760000
H 19.06780000 7.43679000 23.19050000
O 23.86580000 7.15184000 1.62811000
H 22.64570000 7.19342000 0.29750800
H 23.54940000 9.79859000 2.45408000
O 5.03686000 21.30110000 1.87448000
H 4.92586000 20.03020000 3.12027000
H 3.37631000 20.66120000 1.51050000
O 14.24590000 3.48226000 16.18160000
H 14.94750000 1.94274000 15.44800000
H 12.69140000 2.72007000 16.42060000
O 18.51140000 4.66379000 10.30150000
H 20.10870000 4.67556000 11.47430000
H 19.33940000 3.86477000 8.64070000
O 19.47470000 21.00360000 2.17727000
H 20.05910000 22.98300000 1.86897000
H 18.08960000 20.23910000 0.90485400
    
    &END COORD
  &END SUBSYS
  &DFT
    BASIS_SET_FILE_NAME  BASIS_SET
    POTENTIAL_FILE_NAME  GTH_POTENTIALS
    &QS
      EPS_DEFAULT 1.0E-10
    &END QS
    &MGRID
      NGRIDS 4
      CUTOFF 135
      REL_CUTOFF 115
    &END MGRID
    &XC
      &XC_FUNCTIONAL PADE
      &END XC_FUNCTIONAL
    &END XC
    &SCF
      SCF_GUESS ATOMIC
      EPS_SCF 1.0E-7
      MAX_SCF 300
      &DIAGONALIZATION  ON
        ALGORITHM STANDARD
      &END DIAGONALIZATION
      &MIXING  T
        METHOD BROYDEN_MIXING
        ALPHA 0.4
        NBROYDEN 8
      &END MIXING
    &END SCF
  &END DFT
  &PRINT
    &FORCES ON
    &END FORCES
  &END PRINT
&END FORCE_EVAL
