&GLOBAL
  PROJECT H2O_bulk
  RUN_TYPE ENERGY_FORCE
  PRINT_LEVEL LOW
&END GLOBAL
&FORCE_EVAL
  METHOD Quickstep
  &SUBSYS
    &KIND H
      ELEMENT   H
      BASIS_SET DZVP-GTH-PBE
      POTENTIAL GTH-PBE-q1
    &END KIND
    &KIND O
      ELEMENT   O
      BASIS_SET DZVP-GTH-PBE
      POTENTIAL GTH-PBE-q6
    &END KIND
    &CELL
      A     46.937    0.000000000    0.000000000
      B     0.000000000    44.121    0.000000000
      C     0.000000000    0.000000000    45.182
    &END CELL
    &COORD

O 5.65493000 8.03847000 16.07250000
H 7.04460000 7.07458000 16.53320000
H 4.10729000 7.69015000 17.25770000
O 13.17960000 0.38011400 11.98510000
H 13.06070000 22.11080000 11.11040000
H 13.42420000 1.58527000 10.94220000
O 15.03330000 15.46110000 17.85270000
H 13.44710000 15.96560000 16.78820000
H 16.05350000 14.20240000 17.22760000
O 0.87298500 0.64470700 22.37350000
H 1.33846000 21.92070000 22.39180000
H 22.30340000 0.56328200 22.67280000
O 5.66290000 12.74030000 22.88150000
H 6.77320000 13.20050000 21.42350000
H 5.43597000 14.40160000 0.79531900
O 13.61840000 12.60430000 12.47960000
H 11.76930000 12.86360000 12.71200000
H 13.84670000 12.36970000 10.82950000
O 3.14040000 7.94426000 11.40540000
H 4.31857000 8.40389000 12.74230000
H 1.43414000 8.50564000 11.76380000
O 4.34498000 21.97270000 9.10927000
H 3.96714000 22.74460000 7.48550000
H 2.68051000 22.03620000 10.02090000
O 9.22082000 14.95210000 19.89630000
H 9.80944000 14.20720000 18.76930000
H 9.44954000 16.57030000 19.37360000
O 13.01500000 18.82250000 9.55798000
H 14.26080000 17.79210000 8.82903000
H 12.29990000 17.98320000 10.90070000
O 20.18240000 23.79040000 15.99700000
H 20.45410000 22.23600000 14.68580000
H 19.60470000 22.84960000 17.49160000
O 8.54034000 22.83690000 3.28646000
H 9.08324000 21.27160000 4.32690000
H 6.91113000 -0.71841000 3.02717000
O 21.93840000 21.80110000 11.35880000
H 21.12800000 22.76950000 10.07940000
H 23.11720000 20.79940000 10.53230000
O 22.55350000 11.23320000 1.66240000
H 21.65050000 12.64070000 1.40921000
H 0.56012700 11.19180000 0.21302500
O 11.06210000 19.57160000 16.48530000
H 9.96952000 19.81310000 15.02230000
H 9.87423000 19.81980000 17.81290000
O 22.35090000 16.06630000 8.56827000
H 0.27495000 15.07290000 7.37321000
H 21.61720000 14.81650000 9.34523000
O 18.77730000 0.44249600 22.63640000
H 18.06720000 1.15500000 0.95922600
H 18.34310000 21.96470000 22.70980000
O 15.56830000 23.05970000 4.72847000
H 13.89570000 0.52369500 4.61086000
H 15.92470000 21.66000000 3.55260000
O 18.77340000 11.60260000 16.50720000
H 17.83280000 10.58080000 15.37870000
H 18.50130000 11.09670000 18.22330000
O 6.17101000 7.71763000 1.38199000
H 8.02869000 7.68524000 1.98247000
H 5.72180000 9.48171000 1.19961000
O 11.65450000 6.85942000 22.44430000
H 10.73020000 6.30635000 20.95040000
H 11.86200000 8.57947000 22.09120000
O 0.27770000 17.52760000 17.80630000
H 1.19259000 17.14570000 16.25790000
H 0.86795200 16.37830000 19.06160000
O 4.92486000 2.63889000 15.58380000
H 4.91844000 4.46380000 15.84290000
H 5.63062000 2.63217000 14.06980000
O 1.60916000 7.89006000 18.27110000
H 1.48166000 7.25237000 19.90360000
H 0.45011200 7.25319000 17.26680000
O 0.16955500 11.72420000 13.76340000
H 21.74260000 11.34780000 12.98100000
H 22.87440000 12.48850000 14.95300000
O 15.82560000 8.94086000 3.37909000
H 26.89840000 5.84350000 3.60385000
H 15.58110000 7.42172000 4.28895000
O 13.91800000 11.43560000 22.51870000
H 14.13900000 11.59250000 0.98588600
H 14.10890000 13.08040000 21.79910000
O 6.58194000 19.74260000 14.18870000
H 5.50201000 21.14760000 14.79220000
H 5.52381000 18.45740000 14.06550000
O 1.39161000 5.68431000 23.15180000
H 3.08041000 5.96466000 0.33257800
H 1.15247000 3.94200000 22.77270000
O 19.74950000 15.46430000 2.25491000
H 20.94830000 17.25210000 2.43651000
H 19.08530000 15.53600000 0.53262200
O 14.75570000 21.36210000 20.46440000
H 13.99920000 20.10780000 19.61230000
H 14.21780000 22.97480000 19.71830000
O 3.17977000 19.10750000 22.08720000
H 2.23084000 19.34550000 20.40970000
H 4.94055000 19.66190000 21.80780000
O 8.25409000 19.92920000 21.24490000
H 8.89153000 19.65290000 22.95000000
H 8.36803000 22.05710000 20.99380000
O 18.66480000 9.33518000 21.20570000
H 17.25210000 10.13900000 22.32040000
H 19.99870000 9.40152000 22.21630000
O 21.32890000 5.47533000 3.93219000
H 21.87380000 4.93311000 2.18309000
H 22.80950000 5.27493000 5.25915000
O 2.51473000 11.24640000 5.13120000
H 2.02599000 10.71770000 6.77114000
H 0.96291600 11.55640000 4.06386000
O 21.06710000 5.43103000 9.95773000
H 21.05820000 4.68877000 11.60390000
H 20.64190000 3.50844000 8.95175000
O 7.11091000 12.55250000 9.15974000
H 5.48720000 11.77250000 8.51384000
H 8.23292000 11.07270000 9.48226000
O 3.00293000 16.98930000 12.27280000
H 2.22476000 15.47970000 12.59810000
H 3.57057000 17.03210000 10.53960000
O 7.53844000 2.20485000 11.59880000
H 8.64814000 1.24476000 12.43410000
H 7.22735000 1.64465000 9.87574000
O 10.31090000 6.99780000 10.17900000
H 9.18615000 5.45682000 10.38190000
H 11.41600000 6.75916000 12.00140000
O 11.02370000 14.15230000 3.05293000
H 10.36840000 14.35660000 1.26549000
H 9.88995000 13.32080000 3.93012000
O 0.36525300 18.54050000 3.95004000
H 1.78903000 18.33850000 2.99266000
H 0.88149900 19.89800000 4.98787000
O 8.89985000 13.00720000 14.37010000
H 8.39658000 12.16490000 15.99200000
H 7.46545000 13.76930000 13.51750000
O 8.19264000 1.69336000 20.32360000
H 9.68692000 1.08903000 19.60430000
H 7.37917000 2.19631000 18.72710000
O 20.18140000 10.87530000 9.80309000
H 19.39260000 11.54800000 8.22290000
H 20.73960000 9.20857000 9.06471000
O 15.31040000 8.30741000 14.36070000
H 15.35820000 7.09133000 13.37610000
H 14.44070000 9.66152000 13.53970000
O 15.77060000 11.85420000 7.66702000
H 15.58540000 13.53250000 6.94842000
H 15.95570000 10.66040000 6.13329000
O 5.53387000 15.66140000 4.02967000
H 4.77557000 14.50990000 5.21446000
H 7.18477000 16.35880000 4.85967000
O 17.30340000 4.32345000 19.02000000
H 17.89860000 2.89146000 20.06210000
H 17.77350000 5.88771000 19.87640000
O 12.92920000 2.12224000 17.13830000
H 13.45690000 2.21580000 15.50680000
H 14.36930000 3.02208000 17.90380000
O 11.08030000 6.46315000 17.10290000
H 11.77590000 4.80604000 17.44540000
H 12.11220000 7.16273000 15.82240000
O 8.72276000 18.97980000 6.71734000
H 10.39960000 18.38670000 7.32701000
H 7.84738000 19.61730000 8.20395000
O 3.05928000 6.36184000 6.48717000
H 3.08974000 7.89816000 5.29238000
H 3.74283000 6.75903000 8.28563000
O 3.46144000 1.31449000 4.09058000
H 3.88509000 2.73225000 5.13388000
H 3.14219000 1.83971000 2.40807000
O 22.41710000 4.78972000 15.17430000
H -0.20839200 3.50119000 13.93260000
H 21.71010000 3.87588000 16.44730000
O 19.54230000 1.48545000 7.21604000
H 20.15660000 2.76198000 5.62982000
H 18.10120000 0.52864700 6.33016000
O 13.99200000 18.72610000 2.27868000
H 13.18290000 17.24220000 2.82372000
H 13.55410000 18.95080000 0.63250000
O 11.96430000 3.99456000 3.47034000
H 12.56140000 3.71270000 1.83022000
H 10.27670000 3.32032000 3.40207000
O 11.09840000 9.32023000 5.40873000
H 10.33160000 8.86254000 3.78036000
H 11.52830000 7.84839000 6.21275000
O 15.04870000 5.15911000 9.29602000
H 14.36330000 4.71461000 7.90284000
H 16.87160000 4.70528000 9.07167000
O 17.13740000 16.54100000 6.53122000
H 17.94120000 15.72510000 5.30986000
H 18.40600000 16.49200000 7.84513000
O 18.93710000 17.35620000 20.61370000
H 19.99260000 17.16070000 19.28650000
H 17.46340000 17.01010000 19.97610000
O 1.58555000 12.67590000 19.60360000
H 2.73713000 12.58460000 21.04460000
H 2.30591000 11.71830000 18.02910000
    
    &END COORD
  &END SUBSYS
  &DFT
    BASIS_SET_FILE_NAME  BASIS_SET
    POTENTIAL_FILE_NAME  GTH_POTENTIALS
    &QS
      EPS_DEFAULT 1.0E-10
    &END QS
    &MGRID
      NGRIDS 4
      CUTOFF 135
      REL_CUTOFF 115
    &END MGRID
    &XC
      &XC_FUNCTIONAL PADE
      &END XC_FUNCTIONAL
    &END XC
    &SCF
      SCF_GUESS ATOMIC
      EPS_SCF 1.0E-7
      MAX_SCF 300
      &DIAGONALIZATION  ON
        ALGORITHM STANDARD
      &END DIAGONALIZATION
      &MIXING  T
        METHOD BROYDEN_MIXING
        ALPHA 0.4
        NBROYDEN 8
      &END MIXING
    &END SCF
  &END DFT
  &PRINT
    &FORCES ON
    &END FORCES
  &END PRINT
&END FORCE_EVAL
