&GLOBAL
  PROJECT H2O_bulk
  RUN_TYPE ENERGY_FORCE
  PRINT_LEVEL LOW
&END GLOBAL
&FORCE_EVAL
  METHOD Quickstep
  &SUBSYS
    &KIND H
      ELEMENT   H
      BASIS_SET DZVP-GTH-PBE
      POTENTIAL GTH-PBE-q1
    &END KIND
    &KIND O
      ELEMENT   O
      BASIS_SET DZVP-GTH-PBE
      POTENTIAL GTH-PBE-q6
    &END KIND
    &CELL
      A     46.937    0.000000000    0.000000000
      B     0.000000000    44.121    0.000000000
      C     0.000000000    0.000000000    45.182
    &END CELL
    &COORD

O 0.71675100 8.09689000 15.94400000
H 0.47307500 6.39357000 15.45410000
H 0.32972100 7.96385000 17.77690000
O 12.25580000 23.15950000 10.89400000
H 12.86610000 21.62650000 10.30450000
H 12.95430000 -0.11539800 12.49850000
O 13.82630000 14.87190000 14.10790000
H 14.72680000 13.63630000 13.10690000
H 14.33480000 14.78110000 15.99070000
O 22.51780000 3.96092000 22.63210000
H 22.30630000 2.27809000 0.11233300
H 22.68530000 5.40822000 0.37971900
O 7.01051000 11.70990000 1.09761000
H 7.81541000 11.75220000 22.71800000
H 7.91662000 13.19120000 1.93568000
O 9.79451000 14.65790000 10.85740000
H 10.97940000 14.49170000 12.15210000
H 9.23253000 13.03290000 10.35170000
O 6.05744000 5.97022000 12.55870000
H 7.62932000 5.99027000 12.40040000
H 5.33856000 4.12054000 12.86860000
O 4.47968000 21.62920000 8.56784000
H 3.94445000 22.38870000 6.97209000
H 2.84938000 21.18720000 9.45074000
O 7.31772000 16.56260000 18.56520000
H 6.56459000 16.78910000 14.47080000
H 8.94007000 17.41060000 18.48330000
O 13.60320000 18.65830000 9.18222000
H 14.66220000 17.59320000 10.42160000
H 11.96080000 17.63560000 9.03128000
O 20.29400000 22.15670000 19.79470000
H 20.06740000 20.81230000 18.35750000
H 21.83250000 22.14120000 19.77210000
O 11.50960000 18.73210000 2.41390000
H 11.23280000 17.18020000 3.41212000
H 10.14990000 20.05130000 2.94146000
O 0.89163500 21.55230000 12.93740000
H 22.74670000 22.28290000 13.09400000
H 2.23171000 -0.52840800 13.18790000
O 1.30784000 11.41520000 19.98050000
H 2.61807000 11.87110000 18.77960000
H 2.24144000 11.04120000 21.44020000
O 15.93620000 20.77660000 15.89870000
H 14.94270000 19.35750000 15.45900000
H 16.60690000 21.63980000 14.43790000
O 1.55219000 14.98200000 10.44630000
H 2.73022000 14.05250000 9.26505000
H 2.33637000 15.37690000 11.85380000
O 15.23560000 4.37226000 1.94593000
H 14.42110000 4.05982000 3.36360000
H 16.46910000 2.92003000 1.83245000
O 18.35260000 2.15213000 7.42155000
H 17.32120000 3.31783000 7.62846000
H 18.03050000 0.95095300 5.93434000
O 14.40430000 9.16848000 18.33230000
H 13.24120000 10.41370000 19.22800000
H 13.38970000 8.95487000 16.82090000
O 6.80472000 6.54381000 0.95246800
H 8.88806000 6.71035000 1.92726000
H 6.49426000 8.38562000 1.12485000
O 12.06500000 5.17176000 21.12630000
H 12.95570000 5.12361000 22.67080000
H 12.28080000 6.87773000 20.50120000
O 1.46406000 17.68290000 15.83270000
H 1.57829000 18.97400000 14.71090000
H 3.06532000 17.18910000 16.37580000
O 6.58887000 -0.13205400 18.02570000
H 6.05483000 1.56531000 18.45380000
H 5.70110000 22.78070000 16.66760000
O 0.86219200 3.32943000 13.50740000
H 22.85960000 3.37907000 14.50680000
H 0.59600700 3.81849000 11.90180000
O 16.83020000 13.15760000 10.41080000
H 17.99820000 12.09320000 11.00820000
H 17.76290000 14.23850000 8.91825000
O 19.18410000 7.15717000 8.92534000
H 17.48690000 8.07457000 9.02467000
H 19.86610000 8.09941000 10.45510000
O 9.28656000 12.05160000 20.01610000
H 8.52448000 14.17670000 19.92090000
H 9.52033000 11.50510000 18.51990000
O 2.15513000 20.32030000 20.61400000
H 3.49227000 21.40250000 20.13460000
H 2.44911000 18.99460000 19.92480000
O 3.38210000 4.25116000 20.00740000
H 4.24543000 4.79959000 21.13450000
H 1.68282000 4.19096000 20.99890000
O 19.87050000 15.76360000 0.69189500
H 20.62740000 17.53100000 23.26050000
H 21.36300000 14.72920000 1.10413000
O 16.96850000 23.27870000 0.59036200
H 15.24340000 23.18950000 1.29241000
H 16.85270000 22.76110000 22.30530000
O 1.89242000 18.26850000 1.86723000
H 1.61795000 19.37240000 0.23863900
H 3.25976000 17.18540000 1.44334000
O 11.27000000 19.43660000 20.15760000
H 11.43060000 18.87760000 21.83570000
H 12.41140000 21.33450000 19.64970000
O 15.22470000 15.24560000 19.26140000
H 14.51280000 16.92690000 20.20470000
H 16.40350000 15.81070000 18.21580000
O 22.94020000 7.76138000 3.86805000
H 21.37410000 7.62685000 4.36935000
H 0.48768300 6.87613000 4.97842000
O 1.74696000 12.39210000 1.56275000
H 3.62452000 11.71690000 1.52980000
H 0.94063800 11.39280000 2.76713000
O 23.09700000 3.82637000 8.56921000
H 21.62820000 2.41967000 8.35325000
H 22.13980000 5.48666000 8.20688000
O 8.73077000 10.51380000 7.65752000
H 7.10941000 10.71960000 6.68472000
H 9.35315000 8.34008000 8.12572000
O 4.07811000 12.46810000 14.55130000
H 2.84678000 11.25640000 14.75170000
H 5.60939000 11.53400000 13.65040000
O 7.03217000 23.55480000 12.32990000
H 8.80578000 23.40530000 12.29160000
H 6.40151000 23.43340000 10.43470000
O 10.57600000 6.04656000 9.72588000
H 10.99020000 4.54024000 8.82112000
H 10.97890000 6.20732000 11.28450000
O 11.38970000 12.88760000 3.69588000
H 11.41270000 11.60890000 4.77066000
H 12.39460000 12.60720000 2.41620000
O 22.51110000 18.45020000 7.78745000
H -0.04888900 17.62210000 9.26338000
H 23.47390000 18.21060000 6.28944000
O 6.60077000 18.19770000 13.30090000
H 8.56188000 17.78210000 13.29840000
H 6.93617000 20.22440000 12.86240000
O 11.49850000 0.92435000 18.73450000
H 9.88011000 0.06407500 18.81780000
H 11.44320000 2.47560000 19.67500000
O 21.57620000 10.97210000 12.45810000
H 22.31550000 12.32960000 11.01820000
H 23.07540000 9.93979000 13.00090000
O 13.90520000 7.85091000 13.00410000
H 13.63640000 6.55258000 14.15840000
H 15.13620000 7.25925000 12.10970000
O 18.45800000 16.40380000 6.23976000
H 19.72510000 17.24220000 6.99636000
H 19.15710000 16.23500000 4.40879000
O 4.63268000 13.43870000 6.30924000
H 3.50133000 13.88680000 5.01246000
H 5.97296000 15.14380000 6.36790000
O 17.77210000 8.70699000 4.50187000
H 16.91820000 6.92050000 3.79740000
H 17.22920000 9.98898000 3.30103000
O 14.60460000 3.22492000 15.53030000
H 16.36190000 3.42473000 15.09710000
H 14.20400000 2.24291000 17.10350000
O 9.15249000 8.17041000 15.79700000
H 7.52034000 7.76078000 15.44200000
H 10.18190000 6.68354000 15.84470000
O 7.12038000 17.95940000 6.19111000
H 8.58031000 16.91520000 6.85854000
H 6.48964000 19.11190000 7.51825000
O 4.58366000 6.30044000 6.36079000
H 5.08789000 7.09931000 4.92539000
H 5.82762000 7.07351000 7.61342000
O 3.53645000 1.33627000 3.99784000
H 3.96621000 2.83148000 4.98861000
H 2.58197000 1.74140000 2.77352000
O 19.95850000 4.09420000 17.55450000
H 20.27330000 2.43319000 17.85850000
H 20.82140000 5.01500000 19.04340000
O 21.42420000 0.34775900 3.32829000
H 20.74480000 1.74990000 4.21736000
H 19.70760000 22.92940000 2.83783000
O 15.73770000 21.67050000 5.64586000
H 17.37630000 20.93630000 5.92425000
H 14.60660000 20.36540000 6.51021000
O 9.37534000 1.21574000 2.08621000
H 9.97130000 -0.14519600 0.79070600
H 7.50172000 1.43514000 2.02244000
O 16.05910000 11.90370000 0.96566500
H 15.16350000 12.44510000 22.71380000
H 17.83120000 12.08920000 0.90228200
O 12.21640000 2.87992000 6.45011000
H 13.18880000 1.65336000 7.85577000
H 10.66510000 1.92155000 5.95772000
O 19.17160000 22.03160000 11.27790000
H 19.51740000 20.71570000 10.10280000
H 18.25370000 -0.26134000 10.23900000
O 19.58340000 15.67940000 14.91610000
H 20.82890000 16.14870000 15.71640000
H 19.94910000 14.15010000 14.32870000
O 19.54820000 9.11698000 20.30040000
H 18.06640000 9.08070000 19.83820000
H 20.34630000 9.36170000 18.38340000
    
    &END COORD
  &END SUBSYS
  &DFT
    BASIS_SET_FILE_NAME  BASIS_SET
    POTENTIAL_FILE_NAME  GTH_POTENTIALS
    &QS
      EPS_DEFAULT 1.0E-10
    &END QS
    &MGRID
      NGRIDS 4
      CUTOFF 135
      REL_CUTOFF 115
    &END MGRID
    &XC
      &XC_FUNCTIONAL PADE
      &END XC_FUNCTIONAL
    &END XC
    &SCF
      SCF_GUESS ATOMIC
      EPS_SCF 1.0E-7
      MAX_SCF 300
      &DIAGONALIZATION  ON
        ALGORITHM STANDARD
      &END DIAGONALIZATION
      &MIXING  T
        METHOD BROYDEN_MIXING
        ALPHA 0.4
        NBROYDEN 8
      &END MIXING
    &END SCF
  &END DFT
  &PRINT
    &FORCES ON
    &END FORCES
  &END PRINT
&END FORCE_EVAL
