&GLOBAL
  PROJECT H2O_bulk
  RUN_TYPE ENERGY_FORCE
  PRINT_LEVEL LOW
&END GLOBAL
&FORCE_EVAL
  METHOD Quickstep
  &SUBSYS
    &KIND H
      ELEMENT   H
      BASIS_SET DZVP-GTH-PBE
      POTENTIAL GTH-PBE-q1
    &END KIND
    &KIND O
      ELEMENT   O
      BASIS_SET DZVP-GTH-PBE
      POTENTIAL GTH-PBE-q6
    &END KIND
    &CELL
      A     46.937    0.000000000    0.000000000
      B     0.000000000    44.121    0.000000000
      C     0.000000000    0.000000000    45.182
    &END CELL
    &COORD

O 11.20820000 7.15387000 22.44490000
H 10.01410000 5.73929000 22.41910000
H 10.92350000 7.67566000 0.71132500
O 1.91143000 21.24390000 2.23716000
H 2.05129000 20.30780000 3.64745000
H 0.09934800 21.16300000 1.89076000
O 10.14370000 18.21610000 17.54150000
H 9.62288000 17.54170000 15.71530000
H 10.71410000 16.80280000 18.36720000
O 19.48710000 4.37569000 1.11110000
H 18.32230000 4.89111000 0.08701700
H 20.13080000 2.83841000 0.55650100
O 12.18990000 13.23800000 17.02060000
H 13.88280000 13.61570000 17.47870000
H 11.33990000 13.40920000 18.58000000
O 23.32390000 16.94710000 20.76260000
H 1.14613000 18.21320000 20.42320000
H 23.13280000 17.16910000 22.69460000
O 4.22707000 16.20520000 14.86860000
H 3.61328000 17.98060000 15.95880000
H 5.16270000 16.81820000 13.81540000
O 0.32978400 9.48529000 8.19508000
H 22.28090000 8.43440000 8.47239000
H 0.81137200 9.84276000 9.78717000
O 6.74174000 10.50120000 3.60625000
H 8.32095000 10.84960000 3.61032000
H 5.86193000 11.88380000 3.01948000
O 14.54390000 15.55430000 8.91337000
H 13.57630000 14.42470000 10.28060000
H 15.14880000 14.38890000 7.75394000
O 3.06924000 6.47395000 18.44040000
H 3.74230000 6.52966000 19.81590000
H 3.76888000 5.08962000 17.76300000
O 1.33534000 1.21103000 12.93700000
H 3.13791000 0.65143900 13.46430000
H 1.13504000 0.29681900 11.13810000
O 23.25170000 0.79916500 19.85250000
H 0.15993300 2.49451000 20.64170000
H 1.54195000 23.48960000 19.32700000
O 21.87080000 11.58990000 19.65360000
H 22.51320000 13.12890000 19.16290000
H 22.53690000 10.17610000 18.57910000
O 13.24160000 21.69070000 20.43600000
H 12.57290000 23.24170000 21.11350000
H 11.96740000 20.81680000 19.29800000
O 7.18010000 10.09240000 9.39592000
H 6.11753000 9.67303000 10.74820000
H 6.37963000 10.55100000 7.72368000
O 1.70880000 12.17340000 3.72608000
H 1.39785000 11.92800000 5.44319000
H 1.38458000 10.58210000 2.99493000
O 22.62840000 15.38140000 9.40361000
H 21.03040000 14.92740000 10.17030000
H 0.02916900 14.07370000 9.76796000
O 4.40413000 13.29620000 19.44840000
H 3.22982000 13.45180000 21.03360000
H 3.32495000 13.64090000 17.94460000
O 15.84320000 23.16730000 15.91440000
H 17.46360000 0.68470900 16.79160000
H 14.64870000 22.95580000 17.38500000
O 6.88752000 2.02416000 17.31010000
H 7.07019000 1.59086000 15.54590000
H 5.54852000 0.91911600 17.88780000
O 16.98990000 7.58286000 21.16190000
H 15.45440000 6.70558000 21.07910000
H 17.91910000 6.63304000 20.17220000
O 18.71810000 18.04600000 11.48690000
H 19.04770000 18.31260000 13.29470000
H 17.21430000 16.98770000 11.56290000
O 8.36107000 1.15665000 12.71210000
H 7.79868000 0.63807900 11.00150000
H 8.41656000 2.97578000 12.47610000
O 7.47886000 17.17420000 1.68235000
H 8.94346000 17.29940000 2.60374000
H 6.32010000 17.77940000 3.07778000
O 6.86149000 8.58078000 14.14570000
H 12.12350000 7.01959000 12.00600000
H 7.13168000 8.38172000 16.06580000
O 17.86660000 7.71235000 9.73869000
H 17.96690000 6.28094000 8.44803000
H 18.15180000 9.09850000 8.82278000
O 1.87508000 4.44352000 4.95492000
H 1.20305000 5.86409000 5.87817000
H 3.67643000 4.56961000 4.96692000
O 22.43640000 5.77690000 12.06880000
H 22.79270000 3.92372000 11.88070000
H 20.64210000 6.23475000 11.70880000
O 11.05020000 12.57370000 11.93440000
H 11.51060000 12.71400000 13.51310000
H 9.95660000 11.08780000 12.10700000
O 5.96682000 1.80574000 0.92301500
H 4.38827000 1.10062000 1.56815000
H 5.54322000 3.34074000 23.29420000
O 18.70000000 12.11390000 6.95700000
H 18.27370000 12.24280000 5.09478000
H 20.29500000 13.01110000 7.31589000
O 13.65340000 21.00250000 11.21830000
H 14.25280000 21.33570000 12.93340000
H 14.88340000 20.45570000 10.20330000
O 19.37200000 20.74560000 6.54306000
H 18.30550000 22.23480000 6.27015000
H 18.80470000 19.60630000 7.90941000
O 20.41620000 22.28860000 0.55041500
H 21.82040000 22.10970000 22.60070000
H 19.21700000 20.91290000 0.33050100
O 8.72476000 2.41683000 4.89007000
H 10.38160000 1.35153000 4.54955000
H 7.98561000 2.45036000 3.35155000
O 12.31380000 11.86470000 2.08255000
H 13.92540000 11.22590000 1.93720000
H 12.03670000 13.33830000 0.97806100
O 17.92470000 11.67700000 13.96920000
H 16.81070000 12.95180000 14.11860000
H 16.90080000 10.17080000 13.10240000
O 5.39983000 19.82660000 20.30030000
H 6.45744000 19.64520000 18.86880000
H 6.21961000 19.14530000 21.72460000
O 12.35920000 7.64466000 4.89326000
H 11.54560000 9.19107000 4.41329000
H 11.50220000 6.56504000 4.18262000
O 18.46310000 3.70629000 6.54299000
H 18.47780000 3.22599000 4.70925000
H 18.83890000 2.44290000 7.54092000
O 18.16350000 12.84810000 1.85451000
H 18.57500000 12.01310000 0.30910300
H 18.44610000 14.44750000 1.37385000
O 16.35880000 18.73630000 23.33980000
H 15.27880000 19.92730000 22.56480000
H 15.45810000 18.03070000 1.37616000
O 11.27310000 5.12397000 16.51320000
H 12.46160000 6.69962000 18.68350000
H 15.65070000 4.21285000 14.63730000
O 2.86827000 11.84640000 12.85510000
H 3.62714000 12.92860000 13.66600000
H 2.18153000 10.72810000 13.96240000
O 9.54659000 18.10660000 12.23480000
H 10.64760000 19.87030000 10.76430000
H 10.71600000 16.65270000 11.72730000
O 0.36983800 20.56170000 16.00610000
H -0.45429200 21.91680000 15.37970000
H 22.48250000 19.19450000 16.57720000
O 19.11600000 4.15960000 17.55540000
H 20.00190000 2.68429000 17.87210000
H 19.90090000 5.04693000 16.01390000
O 10.05700000 5.01209000 9.76623000
H 9.28618000 6.80766000 9.97061000
H 10.12320000 4.72969000 8.10524000
O 10.12220000 1.99983000 21.78150000
H 8.89066000 0.69522200 22.33860000
H 9.49717000 2.26441000 20.02960000
O 8.83527000 11.68510000 21.43400000
H 8.95699000 10.31610000 20.65130000
H 7.07243000 12.35380000 21.39220000
O 7.99981000 15.52870000 7.22778000
H 8.37641000 13.92900000 8.24722000
H 7.97591000 16.52570000 8.41069000
O 14.37500000 4.87314000 12.30810000
H 15.67330000 5.81550000 11.39240000
H 12.20110000 4.61236000 10.76100000
O 19.05290000 18.56930000 16.79780000
H 18.15190000 17.65300000 18.01230000
H 19.46590000 20.31050000 17.31170000
O 4.73484000 6.62490000 0.27072900
H 6.02262000 7.44558000 1.26023000
H 3.55965000 7.92508000 -0.25475000
O 17.04790000 15.04300000 19.79690000
H 17.57280000 13.25600000 19.27360000
H 17.67820000 15.53850000 21.55740000
O 12.20240000 17.67590000 3.86025000
H 12.77980000 19.24050000 4.84785000
H 11.74720000 16.18900000 4.95106000
O 14.02050000 23.34480000 6.25621000
H 13.51620000 22.62520000 7.93408000
H 15.06210000 1.36063000 6.49870000
O 2.65748000 18.41340000 6.53782000
H 4.09514000 16.33070000 6.33005000
H 1.35949000 17.83230000 7.75227000
O 23.18790000 1.57638000 8.28948000
H 22.21890000 0.93290600 6.93096000
H 1.46462000 2.12551000 7.80415000
O 23.16130000 8.69282000 0.43129100
H 22.40750000 9.16887000 22.52760000
H 22.06080000 7.00398000 1.51878000
O 6.13269000 21.92820000 8.18152000
H 5.94300000 22.41570000 6.45604000
H 4.61595000 20.86120000 8.69002000
O 21.66160000 16.53490000 2.55255000
H 22.45420000 15.26470000 3.47377000
H 21.31500000 17.93680000 3.72545000
O 0.53898300 8.95006000 15.63700000
H 23.11400000 7.80233000 14.92310000
H 2.24225000 8.49246000 15.48650000
    
    &END COORD
  &END SUBSYS
  &DFT
    BASIS_SET_FILE_NAME  BASIS_SET
    POTENTIAL_FILE_NAME  GTH_POTENTIALS
    &QS
      EPS_DEFAULT 1.0E-10
    &END QS
    &MGRID
      NGRIDS 4
      CUTOFF 135
      REL_CUTOFF 115
    &END MGRID
    &XC
      &XC_FUNCTIONAL PADE
      &END XC_FUNCTIONAL
    &END XC
    &SCF
      SCF_GUESS ATOMIC
      EPS_SCF 1.0E-7
      MAX_SCF 300
      &DIAGONALIZATION  ON
        ALGORITHM STANDARD
      &END DIAGONALIZATION
      &MIXING  T
        METHOD BROYDEN_MIXING
        ALPHA 0.4
        NBROYDEN 8
      &END MIXING
    &END SCF
  &END DFT
  &PRINT
    &FORCES ON
    &END FORCES
  &END PRINT
&END FORCE_EVAL
