&GLOBAL
  PROJECT H2O_bulk
  RUN_TYPE ENERGY_FORCE
  PRINT_LEVEL LOW
&END GLOBAL
&FORCE_EVAL
  METHOD Quickstep
  &SUBSYS
    &KIND H
      ELEMENT   H
      BASIS_SET DZVP-GTH-PBE
      POTENTIAL GTH-PBE-q1
    &END KIND
    &KIND O
      ELEMENT   O
      BASIS_SET DZVP-GTH-PBE
      POTENTIAL GTH-PBE-q6
    &END KIND
    &CELL
      A     24.7319 0.0 0.0
      B     0.0 24.7319 0.0
      C     0.0 0.0 24.7319
    &END CELL
    &COORD

O 0.43430000 20.58304000 17.92700000
H 23.99400000 20.50703000 16.54730000
H 0.66570000 18.68923000 18.25790000
O 0.51210000 24.10840000 21.77926000
H 1.94500000 0.12040000 21.74090000
H 0.39720000 22.89140000 20.21848000
O 14.22080000 1.70240000 15.63360000
H 14.12630000 2.32327000 17.18260000
H 13.71830000 0.04388100 16.13330000
O 19.46323000 14.69190000 22.72999000
H 20.77833000 14.00420000 21.87443000
H 20.08572000 15.83599000 23.79985200
O 5.08415000 7.20270000 18.88370000
H 6.32642000 8.28970000 20.11860000
H 5.41925000 7.79710000 17.22480000
O 19.23895000 9.91040000 7.69514000
H 18.65562000 11.74300000 7.97225000
H 18.12091000 9.30466000 6.14903000
O 20.79140000 4.19320000 14.34530000
H 22.67030000 3.94850000 14.12860000
H 19.96840000 2.58090000 13.63770000
O 24.54872400 18.01270000 7.59528000
H 1.29918000 18.46070000 8.33425000
H 23.80919300 19.70630000 7.08839000
O 6.77990000 15.44250000 17.81890000
H 6.13790000 15.26720000 16.08630000
H 6.49720000 14.19880000 19.12010000
O 10.09200000 21.54120000 24.18560000
H 11.55750000 21.57130000 23.90170000
H 9.79460000 20.86060000 1.02640000
O 13.15990000 1.93661000 9.37949000
H 12.72080000 2.41576000 7.42085000
H 12.57880000 3.16253000 10.40870000
O 13.12420000 3.70830000 4.88490000
H 11.48820000 4.32660000 4.53930000
H 13.90450000 2.89880000 3.13790000
O 12.87330000 14.94580000 8.03620000
H 12.68280000 15.19620000 6.24980000
H 11.50340000 13.39600000 8.52720000
O 3.72860000 15.31770000 13.73920000
H 2.24260000 15.08050000 14.69820000
H 3.79430000 14.01260000 12.55250000
O 24.49062400 0.64778600 3.71877000
H 0.12614800 23.97352200 2.57670000
H 1.48141000 1.29433000 4.16340000
O 17.03740000 23.92220000 6.92190000
H 15.57180000 0.14580000 7.73400000
H 16.86830000 22.33950000 6.12580000
O 15.46890000 12.47480000 0.17210000
H 14.58070000 11.67270000 23.58670000
H 16.79570000 13.32710000 23.80510000
O 2.67960000 16.41150000 2.74290000
H 1.81890000 16.77830000 4.45410000
H 2.72300000 14.73880000 2.44980000
O 20.37050000 20.30860000 15.04650000
H 19.27710000 21.78660000 14.62120000
H 19.33350000 19.07370000 16.13120000
O 7.93720000 5.03800000 4.58725000
H 6.67700000 4.73410000 5.95029000
H 7.66030000 3.78190000 3.13735000
O 4.03150000 19.30390000 10.60910000
H 5.66990000 18.74790000 9.83440000
H 3.40840000 18.04300000 11.75290000
O 11.28390000 5.30051000 14.11550000
H 12.02880000 6.81360000 14.49490000
H 12.00050000 3.68694000 15.18580000
O 6.25396000 2.18408000 24.73184300
H 5.71228000 3.48955000 23.30903000
H 7.60913000 1.19016000 23.71097000
O 19.66330000 3.93276000 2.63540000
H 19.39140000 5.62814000 2.99650000
H 20.64170000 3.52583000 4.17470000
O 24.13120000 11.87940000 6.78970000
H 22.17419000 11.16380000 6.61710000
H 23.84155300 13.61360000 7.30240000
O 10.43310000 10.22780000 11.23630000
H 9.43366000 10.46430000 9.86222000
H 9.41613000 8.97010000 11.99630000
O 8.94620000 20.27140000 19.13840000
H 8.31730000 18.51000000 19.30390000
H 8.79690000 20.54530000 20.92430000
O 7.02570000 10.02330000 2.69360000
H 7.44830000 8.19310000 2.82420000
H 5.52930000 10.42540000 2.15140000
O 13.26380000 9.87950000 20.52670000
H 12.73250000 9.83160000 18.60580000
H 13.80740000 8.27210000 21.19220000
O 5.98683000 22.82880000 16.26690000
H 4.46686000 21.89660000 16.52130000
H 7.34681000 21.81290000 17.38460000
O 0.53305000 20.86210000 0.93564400
H 2.03495000 19.37210000 1.69042000
H 1.06920000 21.60460000 24.13186500
O 1.60576000 3.38404000 14.13840000
H 1.95608000 1.59169000 12.98790000
H 1.73022000 2.58192000 15.86200000
O 14.70800000 4.92840000 20.46200000
H 16.32850000 5.53800000 19.60900000
H 15.41290000 3.95040000 21.65230000
O 2.86794000 4.13420000 7.34120000
H 3.48743000 4.90530000 8.71740000
H 1.88534000 2.45950000 7.98250000
O 12.52050000 15.55100000 2.84908000
H 12.99450000 14.52260000 1.61548000
H 10.92500000 16.42980000 2.59474000
O 14.47860000 9.72200000 15.04120000
H 16.14010000 9.62210000 14.33380000
H 13.63220000 10.40160000 13.35890000
O 7.06210000 11.95610000 7.69334000
H 6.75120000 11.08540000 6.03929000
H 5.96460000 11.21850000 9.00155000
O 4.38930000 1.92439000 19.16040000
H 5.18550000 0.51689500 18.09790000
H 5.11250000 3.79569000 19.19440000
O 2.86470000 9.76420000 10.40820000
H 2.78870000 8.42080000 11.18030000
H 1.53060000 9.83480000 9.39820000
O 16.74370000 19.15490000 4.36970000
H 16.97690000 18.19130000 5.86120000
H 15.59380000 18.10540000 3.35210000
O 1.76430000 24.39587200 10.49580000
H 2.65550000 22.70659000 10.82040000
H 0.25060000 23.93106900 10.01150000
O 18.85070000 8.64921000 12.81910000
H 19.46380000 7.00712000 13.28420000
H 18.39710000 8.93685000 10.98340000
O 16.80100000 16.85870000 17.76068000
H 17.49989000 15.61330000 19.11622000
H 15.09471000 16.16300000 17.25259000
O 5.99160000 6.45060000 13.49110000
H 7.63520000 5.59680000 14.22130000
H 4.67200000 5.30690000 13.72330000
O 8.76396000 23.59476000 9.52538000
H 10.15660000 0.29892000 9.91014000
H 7.74438000 23.53783000 10.78100000
O 15.48130000 21.43229000 22.93920000
H 15.04000000 21.63451000 21.13920000
H 17.08690000 20.63086000 23.12770000
O 11.98020000 14.83430000 16.62880000
H 10.33500000 15.63362000 16.79673000
H 11.89650000 13.53570000 15.63024000
O 21.74920000 16.58550000 11.90450000
H 21.17780000 18.21500000 13.03460000
H 23.06240000 17.41910000 10.53640000
O 14.31580000 21.73050000 17.47534000
H 12.75750000 21.02370000 17.80254000
H 15.20410000 20.13120000 17.55115000
O 22.80170000 22.62950000 7.63850000
H 20.81040000 23.26590000 8.08230000
H 23.14230000 23.52880000 6.16860000
O 16.57779000 8.36024000 3.56037000
H 16.05687000 9.99989000 2.82801000
H 15.11862000 7.38222000 3.62314000
O 18.10160000 24.64420000 12.70480000
H 17.88740000 24.12840000 11.08530000
H 16.51890000 0.75360000 13.28060000
O 24.10916900 15.13040000 16.31530000
H 23.50764000 13.65660000 17.29560000
H 22.89109000 15.27670000 15.22930000
O 20.06370000 19.30630000 0.51366300
H 21.78180000 19.46440000 0.30350600
H 19.87280000 19.33910000 2.24900000
O 22.04840000 11.10280000 19.17580000
H 23.19380000 10.23530000 19.99560000
H 20.76850000 9.89033000 18.74750000
O 8.21380000 18.20170000 2.99753000
H 6.41540000 17.77820000 2.58704000
H 8.34620000 18.54220000 5.29497000
O 8.64216000 18.70020000 8.17200000
H 10.33440000 17.32160000 8.88610000
H 9.30609000 20.42110000 8.48180000
O 1.89835000 11.16270000 2.36576000
H 1.23540000 11.61760000 3.94160000
H 0.83874400 10.34660000 0.81660000
O 18.46804000 15.46691000 7.97766000
H 17.02867000 14.83365000 8.96742000
H 19.27435000 15.81134000 9.99331000
O 19.64304000 6.07040000 19.10650000
H 20.59911000 5.20873000 20.49390000
H 20.23070000 5.00390000 17.56150000
O 0.62110000 8.44460000 21.97943000
H 24.61330000 6.67750000 22.28396000
H 2.25860000 8.07010000 21.19675000
O 22.51780000 3.91446000 22.80130000
H 21.32260000 3.91202000 24.57840000
H 22.87790000 2.15224000 22.31770000
O 15.19050000 1.74340000 0.81430000
H 17.10330000 1.62340000 1.38860000
H 15.22390000 0.25210000 24.67940000
O 7.98780000 10.08950000 21.95860000
H 9.84260000 10.75380000 21.95250000
H 8.04620000 10.36110000 23.68280000
    
    &END COORD
  &END SUBSYS
  &DFT
    BASIS_SET_FILE_NAME  BASIS_SET
    POTENTIAL_FILE_NAME  GTH_POTENTIALS
    &QS
      EPS_DEFAULT 1.0E-10
    &END QS
    &MGRID
      NGRIDS 4
      CUTOFF 135
      REL_CUTOFF 115
    &END MGRID
    &XC
      &XC_FUNCTIONAL PADE
      &END XC_FUNCTIONAL
    &END XC
    &SCF
      SCF_GUESS ATOMIC
      EPS_SCF 1.0E-7
      MAX_SCF 300
      &DIAGONALIZATION  ON
        ALGORITHM STANDARD
      &END DIAGONALIZATION
      &MIXING  T
        METHOD BROYDEN_MIXING
        ALPHA 0.4
        NBROYDEN 8
      &END MIXING
    &END SCF
  &END DFT
  &PRINT
    &FORCES ON
    &END FORCES
  &END PRINT
&END FORCE_EVAL
