&GLOBAL
  PROJECT H2O_bulk
  RUN_TYPE ENERGY_FORCE
  PRINT_LEVEL LOW
&END GLOBAL
&FORCE_EVAL
  METHOD Quickstep
  &SUBSYS
    &KIND H
      ELEMENT   H
      BASIS_SET DZVP-GTH-PBE
      POTENTIAL GTH-PBE-q1
    &END KIND
    &KIND O
      ELEMENT   O
      BASIS_SET DZVP-GTH-PBE
      POTENTIAL GTH-PBE-q6
    &END KIND
    &CELL
      A     25.2497 0.0 0.0
      B     0.0 25.2497 0.0
      C     0.0 0.0 25.2497
    &END CELL
    &COORD

O 6.91462000 0.04250000 5.73535000
H 5.56895000 0.25190000 4.76088000
H 6.53053000 24.76970000 7.21558000
O 18.90130000 3.67067000 3.53465000
H 17.95850000 4.08859000 2.34257000
H 19.69910000 2.22428000 2.87749000
O 20.39430000 16.27040000 5.40111000
H 18.71140000 15.66800000 6.28840000
H 21.67900000 16.41430000 6.79807000
O 1.03192000 12.66920000 25.13510000
H 0.49154100 11.61580000 23.81080000
H 1.94742000 11.58870000 1.27870000
O 6.91914000 10.56080000 19.64520000
H 8.80172000 10.24190000 19.51470000
H 6.81498000 12.42920000 19.98180000
O 2.71535000 21.75740000 16.47530000
H 3.37209000 21.12500000 15.00340000
H 4.34504000 21.38790000 17.33590000
O 23.30880000 16.28580000 12.66120000
H 23.86740000 15.05110000 14.13820000
H 21.85460000 15.85030000 12.36970000
O 6.34619000 10.10360000 13.70350000
H 7.39173000 8.67455000 14.01370000
H 5.19053000 9.89787000 15.21750000
O 12.71080000 19.07000000 4.08583000
H 13.56010000 18.61710000 5.31641000
H 13.92700000 20.45660000 3.64790000
O 2.62165000 18.46540000 12.07600000
H 3.18769000 19.22690000 10.25070000
H 1.00837000 18.00170000 12.07630000
O 19.05290000 21.95480000 1.73467000
H 19.37680000 20.62740000 1.20074000
H 17.55490000 22.19040000 1.68371000
O 8.21304000 0.96982200 21.19580000
H 6.63574000 2.02493000 20.85230000
H 7.39886000 25.05923000 22.54250000
O 14.26660000 7.91590000 6.47215000
H 13.18800000 6.66540000 5.61990000
H 15.24590000 7.84371000 5.26986000
O 8.41046000 21.30220000 18.33770000
H 9.23701000 20.89570000 16.90360000
H 9.59347000 22.70340000 19.09690000
O 5.11721000 4.89038000 18.38270000
H 6.20925000 6.39024000 18.16780000
H 3.69979000 5.44807000 18.20720000
O 10.78530000 20.06210000 9.29824000
H 11.08830000 18.46710000 9.73155000
H 12.47000000 20.91850000 9.81397000
O 24.15860000 3.11243000 14.40510000
H 24.48710000 4.37564000 15.27180000
H 0.21520000 2.37209000 13.78640000
O 7.52170000 15.53810000 14.06950000
H 5.84390000 16.07490000 14.04340000
H 8.03618000 14.64690000 12.88310000
O 3.24593000 4.46867000 24.24210000
H 4.39975000 5.64682000 23.15220000
H 2.22339000 4.22457000 22.96900000
O 23.59720000 13.17490000 19.83610000
H 21.98160000 13.47010000 23.14550000
H 24.30260000 14.90110000 19.62970000
O 14.08780000 9.40918000 14.30470000
H 14.03290000 11.27860000 13.78000000
H 12.82540000 8.52628000 14.03260000
O 0.58901900 6.63474000 8.17443000
H 1.21595000 5.29250000 8.63188000
H 25.05071000 7.31578000 9.78815000
O 12.28280000 8.56248000 20.37370000
H 13.14050000 6.82743000 20.35540000
H 12.67410000 9.16673000 18.58120000
O 22.90460000 0.22610000 1.07141000
H 22.77190000 25.09910000 24.48692500
H 21.77490000 24.14770000 1.47331000
O 11.38270000 3.37220000 5.15948000
H 10.05500000 2.41635000 4.78136000
H 11.99780000 3.53278000 3.59826000
O 13.38470000 14.47430000 18.59360000
H 11.58490000 13.52870000 17.81110000
H 13.95200000 12.99190000 18.99780000
O 14.17730000 22.43420000 24.75170000
H 15.62460000 23.81130000 24.78910000
H 12.53170000 22.68400000 23.74330000
O 12.76120000 13.15940000 6.98941000
H 13.17110000 11.28660000 6.91359000
H 12.59270000 13.57110000 4.99248000
O 19.50450000 6.87091000 19.58800000
H 18.48890000 5.44990000 19.77030000
H 19.39390000 7.31441000 17.70710000
O 4.29656000 18.48350000 24.35860000
H 5.47545000 18.40280000 23.33330000
H 4.51713000 16.93770000 24.59630000
O 17.66820000 0.23930000 19.92070000
H 19.42670000 1.00070000 19.85520000
H 18.17290000 24.03130000 18.89140000
O 14.31700000 10.62210000 1.59370000
H 15.62200000 10.86150000 0.44463400
H 13.04980000 11.71760000 1.44682000
O 14.56230000 4.87884000 0.08260000
H 14.17630000 4.02346000 23.77450000
H 14.87870000 6.17471000 24.59290000
O 19.62660000 6.11500000 8.65608000
H 20.05250000 5.20703000 6.96503000
H 17.91490000 6.25677000 8.87033000
O 2.73972000 11.34800000 9.63270000
H 3.92008000 10.86770000 10.62390000
H 2.36005000 10.08360000 8.52311000
O 8.59499000 1.10477000 14.84030000
H 7.34939000 1.16561000 16.57980000
H 10.32290000 0.44453200 14.96360000
O 1.47010000 25.05330000 4.83422000
H 0.86066100 23.71150000 4.31254000
H 0.92001700 0.60630000 3.28429000
O 8.96584000 17.12980000 21.26780000
H 10.29740000 16.04870000 20.99470000
H 7.40390000 16.96890000 20.12320000
O 20.49320000 8.08587000 14.00150000
H 18.98590000 8.51520000 13.11050000
H 20.89180000 7.11945000 12.61950000
O 0.22900000 7.27567000 18.44700000
H 24.34480000 7.94255000 17.14520000
H 24.52290000 8.38745000 20.29750000
O 13.39470000 3.12858000 20.64500000
H 11.87210000 2.83090000 20.74760000
H 14.48180000 2.01314000 20.49860000
O 24.76390000 21.21670000 22.61490000
H 0.64010000 19.67230000 22.58830000
H 24.13640000 20.51640000 21.42670000
O 15.91580000 23.99080000 5.85259000
H 17.73150000 23.21980000 5.83253000
H 16.09800000 0.74790000 5.74491000
O 21.29880000 9.05971000 2.30129000
H 21.72700000 9.05340000 4.00806000
H 22.89010000 8.82978000 1.62188000
O 24.77510000 1.50129000 21.19850000
H 24.34790000 1.01776000 19.43960000
H 0.28850000 0.27336100 22.33840000
O 17.62490000 16.79910000 11.06330000
H 15.53880000 16.64620000 11.80490000
H 17.92580000 19.05110000 10.88790000
O 15.88530000 22.55560000 11.06490000
H 15.80830000 24.07880000 9.90122000
H 17.73650000 23.10030000 11.47470000
O 21.58180000 23.39580000 14.01820000
H 21.55560000 0.08820000 13.88880000
H 22.83150000 22.87890000 13.01450000
O 19.75120000 13.59950000 0.80293700
H 19.37840000 14.89720000 2.04626000
H 20.97530000 12.66180000 1.39428000
O 1.12375000 7.98752000 2.84344000
H 1.31576000 6.70190000 1.95103000
H 0.94836900 7.43008000 4.66074000
O 24.52780000 18.02030000 18.50600000
H 0.46060000 19.00060000 17.02730000
H 22.68720000 17.56300000 17.99380000
O 18.16810000 12.22410000 20.61840000
H 18.70950000 11.85510000 22.03270000
H 18.09450000 10.73740000 19.97280000
O 1.75889000 1.37489000 10.06570000
H 2.87278000 0.48036000 10.50450000
H 1.36718000 0.90594100 8.17426000
O 9.84115000 5.81752000 12.60240000
H 8.00346000 5.41538000 12.25360000
H 9.48981000 4.45158000 13.88400000
O 7.63070000 23.44270000 0.08261300
H 7.47494000 23.52580000 2.13015000
H 6.14790000 20.63530000 0.01311500
O 11.76870000 15.06600000 0.97217200
H 12.31930000 16.74460000 2.25042000
H 11.05550000 15.84420000 24.60816500
O 0.18504800 14.89670000 5.77442000
H 1.78105000 14.46430000 6.70463000
H 25.15179100 13.61450000 5.11525000
O 23.98500000 11.77430000 15.10050000
H 24.00890000 12.17770000 16.62750000
H 22.57280000 10.76140000 14.90350000
O 2.91545000 20.43320000 6.41234000
H 3.29153000 18.97820000 5.75174000
H 4.40751000 21.72790000 6.66594000
O 13.59580000 23.31130000 15.75930000
H 13.49470000 24.23310000 14.35510000
H 14.60750000 22.10910000 15.23700000
O 15.44350000 20.00120000 19.67930000
H 15.24770000 18.69040000 18.80330000
H 14.85670000 20.17450000 21.16910000
O 7.91982000 14.35920000 8.24146000
H 7.09776000 13.32250000 8.92225000
H 9.68842000 13.69930000 7.74389000
O 12.87570000 14.22620000 12.30340000
H 11.37900000 14.39110000 12.33130000
H 13.12390000 13.86880000 10.41820000
O 7.23126000 23.58970000 10.18410000
H 7.63286000 22.07280000 10.76320000
H 8.40810000 25.02690000 9.71724000
    
    &END COORD
  &END SUBSYS
  &DFT
    BASIS_SET_FILE_NAME  BASIS_SET
    POTENTIAL_FILE_NAME  GTH_POTENTIALS
    &QS
      EPS_DEFAULT 1.0E-10
    &END QS
    &MGRID
      NGRIDS 4
      CUTOFF 135
      REL_CUTOFF 115
    &END MGRID
    &XC
      &XC_FUNCTIONAL PADE
      &END XC_FUNCTIONAL
    &END XC
    &SCF
      SCF_GUESS ATOMIC
      EPS_SCF 1.0E-7
      MAX_SCF 300
      &DIAGONALIZATION  ON
        ALGORITHM STANDARD
      &END DIAGONALIZATION
      &MIXING  T
        METHOD BROYDEN_MIXING
        ALPHA 0.4
        NBROYDEN 8
      &END MIXING
    &END SCF
  &END DFT
  &PRINT
    &FORCES ON
    &END FORCES
  &END PRINT
&END FORCE_EVAL
