&GLOBAL
  PROJECT H2O_bulk
  RUN_TYPE ENERGY_FORCE
  PRINT_LEVEL LOW
&END GLOBAL
&FORCE_EVAL
  METHOD Quickstep
  &SUBSYS
    &KIND H
      ELEMENT   H
      BASIS_SET DZVP-GTH-PBE
      POTENTIAL GTH-PBE-q1
    &END KIND
    &KIND O
      ELEMENT   O
      BASIS_SET DZVP-GTH-PBE
      POTENTIAL GTH-PBE-q6
    &END KIND
    &CELL
      A     24.57925 0.0 0.0
      B     0.0 24.57925 0.0
      C     0.0 0.0 24.57925
    &END CELL
    &COORD

O 20.94640000 2.57951000 16.28190000
H 21.36260000 2.91748000 18.09420000
H 19.51520000 1.05825000 16.13010000
O 20.07175000 18.76645000 11.73890000
H 21.69145000 19.32235000 11.20400000
H 19.12865000 19.85165000 10.36300000
O 13.53080000 23.39707000 20.73280000
H 12.06190000 22.71192000 19.57740000
H 14.75730000 23.11904000 19.75710000
O 20.05169000 15.54237000 20.98459000
H 19.75028000 16.49856000 19.44890000
H 21.72245000 16.80032000 22.04149000
O 5.46329000 8.42765000 21.39550000
H 6.82171000 9.46425000 20.53340000
H 6.36514000 6.69025000 21.92770000
O 0.77061000 16.20740000 7.74278000
H 1.61665000 14.52310000 7.47816000
H 2.16634000 17.09600000 6.73334000
O 14.21925000 22.70180000 13.33920000
H 15.13345000 22.06670000 11.96830000
H 13.41765000 21.43380000 14.20020000
O 24.56622100 0.56435000 13.14810000
H 0.51259900 23.60620000 12.97980000
H 22.88169000 1.01245000 14.01360000
O 8.23005000 11.90400000 18.00470000
H 9.30735000 10.60640000 17.13160000
H 9.14605000 13.36240000 18.66770000
O 7.14255000 22.57230000 2.66655000
H 8.45724000 21.55440000 2.67265000
H 7.72373000 24.17790000 2.41045000
O 12.66785000 1.35891000 5.06275000
H 11.21655000 2.33346000 4.13159000
H 13.17445000 0.07027600 3.87833000
O 13.86795000 10.52765000 1.04650000
H 14.80668000 11.38635000 24.29335000
H 12.20995000 10.67355000 1.72530000
O 13.27550000 18.81070000 5.25145000
H 14.35060000 17.24390000 5.16295000
H 11.98670000 18.25700000 6.56015000
O 0.47335000 19.46590000 12.12125000
H 0.90615000 18.34090000 10.61805000
H 0.81765000 18.30680000 13.57585000
O 21.84571000 3.88900000 21.05932000
H 23.02781000 5.25369000 20.63376000
H 22.58199000 2.92914000 22.35261000
O 21.45500000 19.11970000 5.29225000
H 22.51270000 18.14450000 6.41225000
H 22.15250000 20.99220000 5.36275000
O 16.42960000 12.29950000 21.54580000
H 15.97120000 12.42120000 19.66000000
H 17.90490000 13.30380000 21.90790000
O 8.85175000 11.51280000 2.99535000
H 9.13575000 11.24990000 4.79625000
H 7.19025000 11.39400000 2.43675000
O 17.50990000 23.35170000 17.38935000
H 16.73510000 22.92170000 15.79275000
H 18.89680000 22.30660000 17.71775000
O 7.73200000 3.04775000 3.23391000
H 6.04990000 3.55015000 3.91709000
H 7.41420000 3.42235000 1.50019000
O 9.81445000 16.93900000 8.92575000
H 9.90805000 15.24730000 8.51185000
H 9.85935000 17.29070000 10.70325000
O 14.06315000 6.57978000 12.29180000
H 12.69455000 5.36792000 11.60450000
H 16.00711000 5.36108000 12.53600000
O 7.96958000 4.34058000 22.65195000
H 9.75020000 4.34401000 22.43180000
H 7.03830000 2.97412000 22.02875000
O 17.21325000 6.29696000 23.44320000
H 16.88405000 8.06128000 23.60950000
H 19.07495000 5.92175000 22.99330000
O 1.07653000 10.52370000 7.04005000
H 24.14642400 9.89260000 7.33275000
H 2.03146000 10.61220000 5.38115000
O 9.11358000 11.55785000 8.26787000
H 7.35036000 10.83475000 8.98889000
H 10.50280000 10.93315000 9.18867000
O 9.93755000 19.67830000 18.78730000
H 7.97795000 20.06970000 19.12760000
H 10.17315000 18.38370000 19.93950000
O 2.83735000 9.69115000 1.46130000
H 1.59985000 10.88165000 0.46460000
H 3.23505000 8.90165000 24.44365000
O 12.25130000 8.61125000 17.24270000
H 13.08140000 7.84045000 15.89400000
H 12.32260000 7.32905000 18.55340000
O 22.08428000 1.48635000 1.14825000
H 20.18803000 1.30125000 1.58715000
H 22.80710000 0.55225000 2.42295000
O 6.06594000 17.51510000 22.08904000
H 6.79803000 17.03770000 23.98413900
H 4.88294000 16.19950000 21.51244000
O 3.25954000 3.29565000 16.67170000
H 2.36413000 2.13970000 15.67610000
H 2.41709000 4.71363000 17.23710000
O 13.12290000 4.52630000 20.90130000
H 13.36500000 2.96680000 21.14010000
H 14.57870000 5.40590000 21.73330000
O 4.13169000 1.62870000 7.51195000
H 3.93021000 2.02420000 9.15925000
H 5.11698000 0.33560000 7.86875000
O 16.58010000 11.01875000 5.26003000
H 15.42040000 10.65215000 3.68450000
H 17.97040000 9.76475000 5.33159000
O 21.03450000 9.98525000 13.27680000
H 19.84700000 11.65905000 13.53540000
H 21.79620000 10.40595000 11.47490000
O 10.83475000 1.71925000 9.92069000
H 11.83445000 1.21695000 8.19818000
H 11.80615000 0.21055000 10.90900000
O 1.11270000 7.08838000 19.06450000
H 0.30390000 8.69872000 18.89300000
H 2.72730000 7.85150000 19.72810000
O 5.14065000 8.89855000 10.32975000
H 5.54685000 6.95745000 10.41875000
H 3.55745000 8.58155000 9.45805000
O 16.97090000 15.83050000 3.95715000
H 18.33200000 16.74290000 4.69895000
H 17.17490000 14.08210000 4.82055000
O 5.59585000 0.91833400 20.35635000
H 4.00045000 24.48852300 21.00915000
H 4.57785000 2.09982000 19.29925000
O 19.70685000 1.73947000 7.72935000
H 19.54825000 2.97765000 9.34795000
H 18.94185000 2.70043000 6.42475000
O 18.03570000 14.11770000 12.96395000
H 18.29903000 15.92360000 12.11855000
H 16.58947000 13.40080000 11.94045000
O 6.58640000 4.03125000 11.61975000
H 8.04090000 3.24445000 11.12965000
H 6.08580000 3.31005000 13.41545000
O 16.52600000 21.50815000 8.49086000
H 16.88460000 23.52620000 7.94661000
H 15.37730000 20.82812000 7.08616000
O 11.16290000 15.39217000 21.02355000
H 12.73690000 14.70472000 20.68285000
H 11.01460000 15.91284000 23.12005000
O 4.38807000 12.88445000 14.58687000
H 5.87531000 12.93355000 15.87739000
H 4.61218000 12.01745000 12.98505000
O 20.00750000 18.64870000 16.48280000
H 19.80220000 19.00360000 14.63940000
H 21.65690000 18.73570000 16.80610000
O 11.53910000 17.87490000 13.61175000
H 12.29030000 16.36780000 14.03325000
H 10.51570000 18.25060000 15.21336000
O 23.89340000 24.41965000 5.51705000
H 22.62600000 0.65860000 6.67925000
H 0.89565000 0.72960000 5.96155000
O 20.55592000 8.10860000 7.02495000
H 19.86223000 6.90861000 8.59970000
H 21.27853000 7.09783000 5.60391000
O 12.91890000 22.09460000 1.18675000
H 13.72980000 21.12450000 2.42685000
H 13.44620000 22.70970000 24.14800000
O 23.70875400 17.97360000 0.13490000
H 24.55339600 19.46820000 0.03990000
H 22.48736000 18.23980000 1.62400000
O 9.73715000 16.40805000 1.36302000
H 10.49135000 17.66195000 2.67717000
H 9.24595000 14.86105000 2.26179000
O 1.01665000 17.90390000 17.47980000
H 0.55265000 15.77570000 17.64960000
H 2.12715000 18.45710000 18.88600000
O 2.94685000 21.44625000 23.99664300
H 3.89705000 20.03635000 23.40854000
H 4.14935000 22.38195000 0.39923900
O 5.13334000 19.20110000 7.15365000
H 6.72663000 18.21880000 7.57475000
H 5.67802000 20.14880000 5.57035000
O 22.73838000 6.66015000 2.38428000
H 24.39381200 7.24775000 2.44039000
H 22.60523000 4.73505000 1.53899000
O 14.62440000 11.65025000 10.31080000
H 15.02829000 10.24305000 11.33910000
H 15.11460000 11.35485000 8.39421000
O 19.38963000 5.25573000 11.99570000
H 19.83550000 6.83082000 12.62330000
H 19.53104000 4.20610000 13.57920000
O 0.85765000 13.58525000 22.24681000
H 24.04780000 13.16885000 21.23125000
H 0.00145000 14.83863000 23.57948200
O 24.56250000 12.02740000 16.76805000
H 23.04470000 11.33070000 15.51255000
H 1.86475000 12.22710000 16.06655000
O 17.59140000 3.78505000 3.27450000
H 15.50190000 3.15825000 3.53040000
H 17.34560000 5.03315000 1.54570000
O 14.51285000 13.06590000 16.59810000
H 16.17070000 13.18720000 15.46610000
H 14.06345000 11.25070000 17.02740000
    
    &END COORD
  &END SUBSYS
  &DFT
    BASIS_SET_FILE_NAME  BASIS_SET
    POTENTIAL_FILE_NAME  GTH_POTENTIALS
    &QS
      EPS_DEFAULT 1.0E-10
    &END QS
    &MGRID
      NGRIDS 4
      CUTOFF 135
      REL_CUTOFF 115
    &END MGRID
    &XC
      &XC_FUNCTIONAL PADE
      &END XC_FUNCTIONAL
    &END XC
    &SCF
      SCF_GUESS ATOMIC
      EPS_SCF 1.0E-7
      MAX_SCF 300
      &DIAGONALIZATION  ON
        ALGORITHM STANDARD
      &END DIAGONALIZATION
      &MIXING  T
        METHOD BROYDEN_MIXING
        ALPHA 0.4
        NBROYDEN 8
      &END MIXING
    &END SCF
  &END DFT
  &PRINT
    &FORCES ON
    &END FORCES
  &END PRINT
&END FORCE_EVAL
