&GLOBAL
  PROJECT H2O_bulk
  RUN_TYPE ENERGY_FORCE
  PRINT_LEVEL LOW
&END GLOBAL
&FORCE_EVAL
  METHOD Quickstep
  &SUBSYS
    &KIND H
      ELEMENT   H
      BASIS_SET DZVP-GTH-PBE
      POTENTIAL GTH-PBE-q1
    &END KIND
    &KIND O
      ELEMENT   O
      BASIS_SET DZVP-GTH-PBE
      POTENTIAL GTH-PBE-q6
    &END KIND
    &CELL
      A     24.29476 0.0 0.0
      B     0.0 24.29476 0.0
      C     0.0 0.0 24.29476
    &END CELL
    &COORD

O 19.74680000 1.91559000 17.02752000
H 20.09410000 1.92525000 19.13822000
H 18.31430000 0.64100600 16.93722000
O 19.15664000 16.76014000 10.50440000
H 20.85014000 15.66984000 10.08230000
H 18.22764000 17.09474000 9.11928000
O 13.36410000 23.56906200 19.74140000
H 11.98990000 22.33127000 19.35110000
H 14.67290000 22.95459000 18.86060000
O 20.90856000 15.44133000 23.54403400
H 21.81743000 17.11966000 23.61191000
H 19.85403000 15.62661000 0.71883500
O 5.95079000 7.99644000 22.13520000
H 6.67293000 9.13714000 21.11370000
H 6.51865000 6.52034000 21.33310000
O 23.41444500 14.24670000 10.08470000
H 23.53163000 12.94740000 8.50521000
H 0.48591900 15.83220000 10.22380000
O 14.44064000 22.79840000 11.47890000
H 15.46554000 22.65870000 9.97406000
H 13.04314000 21.52660000 12.02450000
O 22.96322000 0.24956000 13.24160000
H 23.51403000 22.64602000 13.18180000
H 21.58028000 0.49946000 14.58810000
O 8.20434000 10.65662000 17.73510000
H 9.44374000 9.65022000 17.19750000
H 8.98144000 12.15072000 18.38850000
O 6.40946000 22.91882000 2.92246000
H 8.22403000 22.73912000 2.55326000
H 6.11202000 0.23736000 3.08246000
O 11.10906000 2.65213000 4.50212000
H 9.10416000 3.21106000 4.31773000
H 11.39766000 0.91970300 3.61048000
O 13.45806000 9.54014000 1.49578000
H 14.44302000 9.88864000 0.18248000
H 11.77826000 10.31844000 0.66958000
O 13.26530000 18.26212000 3.48316000
H 15.16210000 17.69052000 3.60176000
H 12.19700000 18.02282000 5.19036000
O 1.36064000 19.00830000 10.96644000
H 2.45054000 19.75150000 9.87734000
H 2.25914000 18.41810000 12.58794000
O 21.07820000 3.67913000 21.60352000
H 22.46878000 4.78811000 21.48739000
H 21.66378000 2.52288000 22.89979000
O 22.63902000 19.06840000 5.55444000
H 24.03832000 18.58960000 6.94894000
H 22.37822000 21.11250000 5.48884000
O 17.28902000 10.89290000 22.43920000
H 17.36672000 11.99590000 20.96310000
H 18.55322000 12.02450000 23.45430000
O 8.05496000 11.70108000 2.39746000
H 8.26326000 11.46858000 4.40146000
H 6.37706000 11.15978000 1.88386000
O 16.75468000 21.41290000 16.36744000
H 16.00968000 21.71990000 14.66254000
H 17.97098000 20.09340000 16.28894000
O 5.99198000 3.59626000 4.37504000
H 4.82668000 2.88086000 5.80412000
H 4.79798000 4.01616000 3.17232000
O 9.43664000 18.20200000 7.85066000
H 9.31874000 16.39350000 7.85156000
H 10.15344000 18.42360000 9.41666000
O 14.60957000 6.90157000 11.98888000
H 13.47206000 5.19024000 11.45008000
H 16.35727000 6.42231000 13.01058000
O 7.89989000 2.96105000 21.64721000
H 9.53630000 3.51391000 21.25049000
H 7.86710000 1.56735000 20.51999000
O 18.40514000 5.95503000 1.52954000
H 17.83244000 7.64148000 1.23444000
H 19.52504000 5.61194000 0.37754000
O 0.33689200 10.41378000 6.82284000
H 23.28319000 9.43868000 6.58784000
H 1.20257000 10.27838000 5.13134000
O 8.77799000 12.77154000 7.57448000
H 7.53942000 12.14834000 8.42226000
H 10.41720000 12.34604000 8.51768000
O 9.18226000 20.13460000 17.60710000
H 7.79206000 21.38680000 17.98930000
H 9.04306000 18.65270000 18.68690000
O 2.72934000 9.63754000 1.72528000
H 2.05684000 11.14244000 0.44988000
H 3.91454000 8.42494000 0.72078000
O 12.76540000 8.09714000 16.46150000
H 12.97890000 7.45514000 14.33220000
H 12.74910000 6.42174000 17.26830000
O 23.24581000 0.97766000 1.12934000
H 22.97366000 1.50586000 2.88204000
H 23.22761000 23.51542000 1.08294000
O 4.87757000 16.77580000 21.11621000
H 6.22317000 16.77230000 22.16878000
H 3.86074000 16.30450000 22.22871000
O 2.41864000 2.29589000 15.92050000
H 0.88475500 2.08007000 14.74590000
H 1.91951000 3.53269000 17.12770000
O 12.80442000 4.20338000 20.06462000
H 13.20382000 2.19808000 19.73872000
H 14.10932000 5.03648000 20.67002000
O 3.55482000 1.30868000 8.58306000
H 4.08534000 2.61938000 9.68326000
H 4.75356000 24.01734000 8.53916000
O 16.21892000 11.54954000 5.18902000
H 14.79942000 10.91494000 4.01061000
H 17.37442000 10.12624000 5.57784000
O 21.47330000 11.49074000 14.43100000
H 20.44690000 12.91724000 15.15790000
H 22.23860000 12.35424000 12.90920000
O 11.46916000 2.75456000 10.34840000
H 11.06506000 2.77096000 8.63025000
H 12.51626000 1.31206000 10.40100000
O 1.11122000 6.02938000 19.53000000
H 1.02832000 8.14276000 18.83210000
H 2.05142000 5.74815000 21.25150000
O 4.87986000 9.77606000 9.90774000
H 4.95756000 7.84196000 10.02004000
H 3.10586000 9.84866000 9.47464000
O 18.19130000 15.99170000 3.75684000
H 19.64220000 16.21750000 4.95714000
H 17.54850000 14.19210000 4.16764000
O 5.44196000 23.60526500 18.62644000
H 4.56206000 22.75394000 20.20714000
H 4.27686000 0.33747500 17.60004000
O 19.63804000 3.79420000 8.63904000
H 19.38064000 3.92964000 10.32374000
H 18.30294000 3.35484000 7.49494000
O 14.91812000 15.42442000 13.25696000
H 16.72884000 15.77442000 12.64006000
H 14.40450000 14.37922000 12.07966000
O 5.43188000 4.51766000 12.04166000
H 7.27098000 3.82086000 11.97146000
H 4.93658000 3.93666000 14.00596000
O 16.14860000 22.43842000 6.83398000
H 15.92460000 24.13012000 5.76402000
H 15.39520000 21.30980000 5.54707000
O 10.58312000 14.69665000 19.72914000
H 12.40182000 14.24236000 19.63624000
H 10.40882000 14.77353000 21.56014000
O 5.06804000 12.78946000 14.38878000
H 6.59554000 12.39626000 15.85827000
H 5.22788000 11.34356000 13.30666000
O 21.08420000 17.45480000 15.56970000
H 20.88780000 17.90130000 13.82150000
H 23.06400000 17.50880000 15.90090000
O 10.84930000 18.66920000 12.56966000
H 12.50500000 17.52480000 12.42236000
H 10.19340000 18.22170000 14.33295000
O 23.32530000 0.19348000 6.66724000
H 21.60910000 0.66728000 7.10974000
H 0.58614000 0.84588000 7.99584000
O 20.25275000 7.89942000 5.52643000
H 20.20181000 6.41621000 6.65652000
H 19.98632000 6.97168000 4.18569000
O 11.93540000 22.73942000 1.23484000
H 12.61150000 20.72202000 1.38184000
H 12.66060000 23.26292000 23.96610000
O 23.56178400 20.05120000 0.53348000
H 1.17009000 20.42490000 0.05808000
H 23.68655900 19.47410000 2.16758000
O 8.89444000 16.19744000 0.20900200
H 9.90844000 17.37624000 0.88963600
H 8.55194000 14.46154000 1.16723000
O 2.56614000 17.09570000 15.67202000
H 3.22134000 15.58690000 14.95752000
H 3.47614000 16.83750000 17.43252000
O 4.03366000 21.43494000 22.98676000
H 4.63216000 19.85324000 22.13837000
H 5.17076000 22.06644000 0.13270800
O 4.84138000 21.12332000 7.48764000
H 6.37042000 19.95422000 8.04144000
H 5.34706000 21.68652000 5.68154000
O 3.29011000 3.46894000 24.22442700
H 4.75647000 2.54784000 23.56058400
H 1.89795000 2.50244000 0.27751600
O 13.48006000 11.57846000 9.49828000
H 13.38126000 9.84686000 9.91927000
H 14.66821000 11.41416000 7.88773000
O 19.33395000 6.23698000 13.99230000
H 20.04945000 7.67905000 14.35990000
H 19.48643000 5.18198000 15.45440000
O 0.75804000 12.78076000 22.22862000
H 1.11064000 12.11296000 20.40992000
H 23.40910000 13.28096000 22.30154000
O 1.02564000 10.70300000 17.27794000
H 23.95840000 10.71100000 16.07804000
H 2.69604000 11.20550000 16.18414000
O 15.93170000 3.39194000 5.24118000
H 13.85280000 3.05534000 5.38138000
H 16.66400000 4.59834000 3.70168000
O 14.90395000 12.66220000 17.90070000
H 15.44496000 13.44220000 16.24690000
H 13.98776000 10.71960000 17.59790000
    
    &END COORD
  &END SUBSYS
  &DFT
    BASIS_SET_FILE_NAME  BASIS_SET
    POTENTIAL_FILE_NAME  GTH_POTENTIALS
    &QS
      EPS_DEFAULT 1.0E-10
    &END QS
    &MGRID
      NGRIDS 4
      CUTOFF 135
      REL_CUTOFF 115
    &END MGRID
    &XC
      &XC_FUNCTIONAL PADE
      &END XC_FUNCTIONAL
    &END XC
    &SCF
      SCF_GUESS ATOMIC
      EPS_SCF 1.0E-7
      MAX_SCF 300
      &DIAGONALIZATION  ON
        ALGORITHM STANDARD
      &END DIAGONALIZATION
      &MIXING  T
        METHOD BROYDEN_MIXING
        ALPHA 0.4
        NBROYDEN 8
      &END MIXING
    &END SCF
  &END DFT
  &PRINT
    &FORCES ON
    &END FORCES
  &END PRINT
&END FORCE_EVAL
