&GLOBAL
  PROJECT H2O_bulk
  RUN_TYPE ENERGY_FORCE
  PRINT_LEVEL LOW
&END GLOBAL
&FORCE_EVAL
  METHOD Quickstep
  &SUBSYS
    &KIND H
      ELEMENT   H
      BASIS_SET DZVP-GTH-PBE
      POTENTIAL GTH-PBE-q1
    &END KIND
    &KIND O
      ELEMENT   O
      BASIS_SET DZVP-GTH-PBE
      POTENTIAL GTH-PBE-q6
    &END KIND
    &CELL
      A     24.5885 0.0 0.0
      B     0.0 24.5885 0.0
      C     0.0 0.0 24.5885
    &END CELL
    &COORD

O 22.03690000 20.02242000 20.83080000
H 20.66950000 20.89236000 21.76930000
H 21.11200000 18.28087000 20.55070000
O 0.30190000 23.01380000 4.10046000
H 1.66250000 22.05710000 4.03998000
H 24.44850000 22.75700000 2.15008000
O 9.83617000 1.21958000 11.63370000
H 11.25050000 2.25006000 12.08180000
H 9.83214000 23.97549600 12.84050000
O 18.85734000 16.63626000 0.63028000
H 19.79109000 17.30876000 23.70478400
H 18.27301000 18.23862000 1.15416000
O 7.50999000 5.90840000 20.08470000
H 7.19273000 7.74570000 20.45980000
H 9.31031000 5.73900000 19.50050000
O 21.87594000 12.16150000 12.07890000
H 21.70044000 11.02880000 10.53190000
H 23.33301000 13.08110000 11.21350000
O 20.68080000 0.96200000 12.51890000
H 22.50520000 0.96450000 13.56260000
H 20.96250000 24.50770000 10.87710000
O 23.67500400 18.85930000 11.91670000
H 24.29827200 17.41320000 11.01090000
H 22.83911000 20.01920000 10.65880000
O 5.37570000 13.87150000 18.14090000
H 6.04820000 15.48150000 17.62610000
H 6.46170000 12.72720000 19.40010000
O 9.78763000 20.62840000 21.00520000
H 11.52490000 20.30630000 20.73120000
H 9.06125000 20.30990000 22.74770000
O 12.62360000 3.57334000 6.62406000
H 11.19780000 2.27158000 7.12183000
H 12.44710000 3.83547000 4.64406000
O 11.63290000 4.83990000 1.07770000
H 10.70060000 4.10760000 24.41180000
H 13.00160000 4.94240000 0.26330000
O 15.19150000 19.34000000 10.70930000
H 15.94150000 17.98680000 9.76060000
H 13.22780000 19.24060000 10.63560000
O 1.54110000 14.18670000 10.19160000
H 2.13170000 13.90550000 8.47900000
H 2.37540000 13.36750000 11.53590000
O 0.13483100 4.43339000 23.21993000
H 0.97427900 5.32213000 0.18299000
H 1.07472000 2.69286000 23.48273000
O 21.11220000 22.52710000 8.28420000
H 21.81240000 23.03610000 6.85380000
H 19.25470000 22.93590000 8.26550000
O 14.76310000 13.04120000 0.39340000
H 14.59470000 12.02890000 23.66720000
H 16.52110000 13.02000000 0.25020000
O 7.93590000 14.47160000 4.85250000
H 8.10220000 13.95670000 6.77090000
H 8.02280000 13.08360000 3.70090000
O 17.93790000 20.96160000 14.66920000
H 18.79090000 22.31530000 13.31600000
H 16.76500000 20.25980000 13.22400000
O 7.54030000 1.59750000 4.44665000
H 5.78070000 2.42950000 4.48165000
H 8.42630000 1.95610000 2.90752000
O 9.30970000 19.83190000 8.42600000
H 9.25080000 18.54270000 9.40740000
H 9.44120000 21.48080000 9.37560000
O 13.43120000 5.02740000 13.61870000
H 12.13540000 6.28051000 12.41790000
H 14.96051000 4.84253000 13.19140000
O 7.53319000 1.95484000 23.40503000
H 7.38542000 0.20295500 22.72136000
H 7.10416000 3.15784000 22.04596000
O 20.23020000 6.50097000 24.21100000
H 20.44600000 7.57896000 0.78030000
H 21.82890000 5.38455000 24.23360000
O 20.91294000 13.96080000 4.39970000
H 20.44835000 14.62840000 3.04970000
H 22.85928000 13.60830000 4.43440000
O 9.07020000 14.92500000 10.39210000
H 7.90951000 13.87950000 11.66480000
H 10.54890000 14.11580000 10.77060000
O 6.43040000 18.75870000 17.36990000
H 4.35300000 19.28260000 17.46710000
H 7.04540000 19.54610000 18.79690000
O 8.41950000 9.49180000 2.09080000
H 10.00340000 8.46270000 2.36550000
H 7.33480000 7.84120000 1.77260000
O 13.44700000 10.96080000 20.42080000
H 13.86030000 11.84100000 18.89340000
H 13.39960000 9.22220000 19.90680000
O 1.38925000 23.59600000 23.38890000
H 0.15043500 22.85200000 22.10640000
H 2.34096000 22.19870000 24.13440000
O 2.29248000 13.01830000 4.90168000
H 2.03822000 11.21430000 4.42037000
H 4.17773000 13.43680000 4.60053000
O 0.52894400 0.77852500 15.16630000
H 0.14980000 23.69556300 15.84370000
H 0.58120000 1.88748000 16.60250000
O 12.83680000 5.76180000 18.97030000
H 13.24830000 5.86340000 17.10030000
H 14.32300000 4.51820000 19.26640000
O 2.67157000 3.38380000 6.87200000
H 3.16118000 2.75860000 8.65290000
H 1.70639000 1.86050000 6.00830000
O 12.94780000 16.49700000 4.19382000
H 13.25090000 15.02820000 3.09894000
H 11.37500000 16.36420000 4.64163000
O 22.87720000 8.49450000 15.26480000
H 24.50630000 8.09480000 15.90040000
H 23.28030000 10.27980000 14.50460000
O 10.64030000 7.35310000 9.44188000
H 11.10790000 6.00590000 7.86977000
H 8.58920000 7.77520000 9.46322000
O 1.75220000 5.42589000 18.14520000
H 0.83930000 5.40910000 19.77010000
H 3.45160000 5.44134000 18.06600000
O 4.96760000 7.55040000 10.61580000
H 4.86440000 5.85700000 10.82750000
H 4.19980000 8.16820000 9.11030000
O 16.79110000 14.98030000 8.36320000
H 18.59000000 14.70830000 7.52580000
H 15.87570000 15.42760000 6.69940000
O 0.94680000 20.83132000 16.68930000
H 0.00070000 20.16910000 17.90810000
H 0.04930000 19.72980000 15.19110000
O 20.89130000 7.96350000 7.95120000
H 19.53550000 7.77596000 6.93900000
H 20.31390000 6.87094000 9.57980000
O 14.21780000 14.55400000 16.13123000
H 15.69545000 14.91250000 15.44500000
H 13.43040000 13.63380000 14.73856000
O 4.58610000 2.48290000 11.18770000
H 6.52920000 2.24520000 11.45920000
H 3.70640000 1.68040000 12.51140000
O 16.13290000 23.30463000 7.27441000
H 14.87240000 24.40377400 7.25012000
H 15.78540000 22.06177000 8.75066000
O 16.95190000 22.79253000 22.20910000
H 16.10930000 21.84118000 21.05260000
H 16.40380000 22.35036000 23.74780000
O 5.04929000 11.60380000 13.32670000
H 5.10153000 12.17130000 15.13086000
H 4.95202000 9.80620000 12.91230000
O 19.25110000 15.73410000 15.51660000
H 19.60100000 17.43240000 14.93630000
H 20.09520000 14.67030000 13.88330000
O 9.98982000 21.15330000 14.44620000
H 11.10850000 20.80880000 15.90399000
H 8.48601000 20.18280000 15.25114000
O 0.98480000 8.17050000 6.40890000
H 23.47120000 8.11920000 6.68430000
H 1.16590000 6.30770000 6.63290000
O 18.42968000 9.58019000 3.27614000
H 19.40436000 11.19110000 3.95218000
H 16.60859000 10.46850000 2.70089000
O 14.32410000 19.64390000 18.07830000
H 14.20260000 17.99860000 17.60750000
H 15.68060000 20.60820000 17.18140000
O 2.51846000 15.95810000 21.87470000
H 0.64215400 16.05730000 22.19730000
H 3.08695000 14.88300000 20.57100000
O 15.94680000 20.48440000 2.27279000
H 16.30360000 21.78460000 3.68008000
H 14.92690000 19.39410000 2.62607000
O 21.65240000 14.85200000 20.45240000
H 21.42630000 12.89570000 21.05240000
H 20.81290000 14.86960000 18.75350000
O 5.36650000 19.75720000 24.42004300
H 5.03240000 18.40030000 23.71915800
H 5.48860000 19.23270000 1.73865000
O 5.40796000 21.42710000 5.05020000
H 6.47808000 20.16710000 5.92520000
H 6.29565000 22.91100000 4.76080000
O 3.16766000 7.27770000 1.73152000
H 2.17681000 7.83250000 3.47813000
H 2.99205000 8.43470000 0.23488300
O 13.36510000 12.05140000 10.90840000
H 12.89550000 10.39290000 10.40110000
H 14.63816000 12.42450000 9.73081000
O 19.61950000 5.71409000 11.96410000
H 20.83294000 6.28637000 13.46250000
H 20.03984000 3.81765000 12.12270000
O 3.06950000 9.24390000 21.83790000
H 3.81090000 10.92840000 21.27597000
H 1.29400000 8.99950000 21.26962000
O 22.75660000 9.55283000 20.19540000
H 21.60950000 8.17798000 21.16570000
H 22.39990000 9.05540000 18.53430000
O 16.16980000 3.36630000 22.80610000
H 17.65670000 4.41450000 22.87850000
H 16.71080000 1.54650000 22.89260000
O 8.42990000 11.33970000 21.64820000
H 10.29070000 11.79160000 21.23590000
H 8.29290000 10.86190000 23.38200000
    
    &END COORD
  &END SUBSYS
  &DFT
    BASIS_SET_FILE_NAME  BASIS_SET
    POTENTIAL_FILE_NAME  GTH_POTENTIALS
    &QS
      EPS_DEFAULT 1.0E-10
    &END QS
    &MGRID
      NGRIDS 4
      CUTOFF 135
      REL_CUTOFF 115
    &END MGRID
    &XC
      &XC_FUNCTIONAL PADE
      &END XC_FUNCTIONAL
    &END XC
    &SCF
      SCF_GUESS ATOMIC
      EPS_SCF 1.0E-7
      MAX_SCF 300
      &DIAGONALIZATION  ON
        ALGORITHM STANDARD
      &END DIAGONALIZATION
      &MIXING  T
        METHOD BROYDEN_MIXING
        ALPHA 0.4
        NBROYDEN 8
      &END MIXING
    &END SCF
  &END DFT
  &PRINT
    &FORCES ON
    &END FORCES
  &END PRINT
&END FORCE_EVAL
