&GLOBAL
  PROJECT H2O_bulk
  RUN_TYPE ENERGY_FORCE
  PRINT_LEVEL LOW
&END GLOBAL
&FORCE_EVAL
  METHOD Quickstep
  &SUBSYS
    &KIND H
      ELEMENT   H
      BASIS_SET DZVP-GTH-PBE
      POTENTIAL GTH-PBE-q1
    &END KIND
    &KIND O
      ELEMENT   O
      BASIS_SET DZVP-GTH-PBE
      POTENTIAL GTH-PBE-q6
    &END KIND
    &CELL
      A     24.62179 0.0 0.0
      B     0.0 24.62179 0.0
      C     0.0 0.0 24.62179
    &END CELL
    &COORD

O 0.39141000 24.30817700 12.49008000
H 23.58230000 23.27665000 13.19708000
H 1.03431000 23.03031000 11.35508000
O 1.93202000 0.77532000 0.83680300
H 3.31572000 1.08582000 24.16256500
H 1.96672000 23.72901000 1.32697000
O 12.92220000 0.50298300 16.50870000
H 13.27930000 1.78183000 17.79160000
H 14.04650000 23.13630000 16.60250000
O 20.94194000 14.81473000 21.77644000
H 22.31196000 13.48709000 22.71754000
H 21.65473000 16.50168000 22.06956000
O 5.92990000 11.84691000 19.86840000
H 5.55300000 10.66151000 21.61790000
H 5.74451000 10.70241000 18.51820000
O 16.72232000 11.74410000 7.10542000
H 16.29697000 13.60010000 7.45000000
H 16.78657000 10.97100000 5.58840000
O 18.96221000 5.49731000 13.20060000
H 20.62061000 4.84141000 12.71630000
H 18.46381000 3.93311000 12.24630000
O 2.10608000 12.00948000 6.33129000
H 1.94751000 10.39668000 5.60335000
H 2.51648000 12.28948000 7.94523000
O 8.64661000 14.99688000 17.06720000
H 7.48421000 13.83328000 18.30510000
H 9.60341000 13.33698000 16.08310000
O 10.93970000 18.50538000 0.30009000
H 12.52080000 17.72888000 0.86979000
H 9.60764000 17.84198000 1.39499000
O 12.53529000 5.11832000 8.35656000
H 13.63399000 6.12727000 9.26255000
H 11.12969000 4.43265000 9.75284000
O 14.38819000 4.54531000 1.08962000
H 12.84539000 3.97511000 1.42102000
H 15.90770000 3.13701000 1.07522000
O 10.20270000 18.16408000 8.02699000
H 9.31377000 16.92178000 6.80729000
H 9.39970000 18.19338000 9.70289000
O 3.17271000 13.85540000 11.17001000
H 1.37191000 13.84940000 12.05351000
H 4.76111000 13.28370000 11.88821000
O 2.02146000 1.38643000 6.53576000
H 3.71431000 1.98853000 7.41765000
H 2.36152000 1.06827000 4.87314000
O 14.34488000 0.83841000 7.20761000
H 15.79508000 0.74061000 6.15071000
H 13.83638000 2.50421000 7.48101000
O 16.58488000 12.02910000 22.46340000
H 16.23578000 11.05520000 21.15080000
H 18.06818000 13.04550000 22.23470000
O 3.50459000 15.31492000 2.73829000
H 2.58309000 14.25472000 3.87659000
H 2.83349000 14.05612000 1.43619000
O 20.76482000 21.28730000 13.04751000
H 19.14462000 22.24900000 12.85751000
H 20.74452000 20.06840000 14.39831000
O 10.28472000 10.60119000 1.67744000
H 8.98752000 10.04529000 0.59283900
H 11.92982000 11.11059000 1.03561000
O 3.68361000 20.08700000 10.93819000
H 5.24521000 19.73100000 11.69269000
H 3.04591000 18.37760000 10.52749000
O 10.17009000 6.73871000 16.67262000
H 11.20729000 5.60406000 17.91602000
H 8.64249000 6.49114000 17.55212000
O 10.50170000 24.05143400 0.05012400
H 9.91173000 23.00114000 1.56900000
H 11.08090000 22.60235000 23.92976300
O 19.48961000 0.50079500 5.34261000
H 20.33281000 1.99501000 6.03331000
H 20.80261000 23.89252300 5.18571000
O 21.36598000 13.00622000 8.44191000
H 19.92782000 11.79172000 8.39351000
H 22.49354000 11.52242000 8.16601000
O 3.60807000 7.80971000 13.91670000
H 4.98450000 8.47871000 12.82360000
H 2.18627000 6.91891000 13.45820000
O 10.47969000 19.22670000 19.45910000
H 10.16349000 17.14030000 19.43040000
H 11.25939000 19.59690000 21.07830000
O 0.90981000 11.59261000 24.57501000
H 0.09361000 10.55211000 1.20242000
H 1.99801000 10.49241000 23.15201000
O 6.75873000 1.87571000 22.52670000
H 6.50705000 1.44631000 20.66150000
H 7.98828000 1.11321000 23.47770000
O 3.50839000 0.81969000 16.70470000
H 1.61926000 0.16589000 15.47020000
H 4.32187000 23.98508000 17.01450000
O 1.61364000 20.02400000 1.62047000
H 2.95118000 18.91980000 1.84583000
H 1.18653000 20.16920000 3.40252000
O 24.30204800 4.98229000 12.33170000
H 24.11425400 5.11578000 10.55840000
H 0.46680800 3.35394000 12.09900000
O 13.68488000 4.51242000 19.86538000
H 14.85178000 5.68172000 18.80538000
H 13.95508000 4.49472000 22.00258000
O 8.90844000 8.86882000 6.40109000
H 10.14830000 7.84112000 7.43329000
H 9.87683000 9.32962000 4.77389000
O 8.76828000 15.31311000 4.18287000
H 9.31568000 13.84171000 3.62939000
H 7.08848000 15.34821000 3.58632000
O 16.26230000 8.57141000 17.98700000
H 17.90200000 8.96931000 17.19990000
H 15.23050000 9.46271000 16.79460000
O 7.57939000 10.99849000 11.57120000
H 8.01679000 10.92009000 9.59541000
H 9.02699000 10.95019000 12.44870000
O 4.77018000 5.77821000 17.95720000
H 4.40978000 4.03771000 17.72810000
H 4.52758000 6.42658000 16.30160000
O 3.87839000 7.45099000 4.45751000
H 5.64789000 7.53839000 5.19081000
H 3.27539000 5.72709000 5.06371000
O 15.78340000 17.02810000 1.27511000
H 16.62490000 17.33930000 3.04611000
H 16.45810000 15.49800000 0.48211000
O 6.40599000 0.60171900 9.27691000
H 7.75809000 24.41725200 8.23431000
H 5.72259000 23.46623000 9.62581000
O 15.48701000 9.00671000 11.42001000
H 16.87471000 7.75401000 11.50511000
H 15.73801000 9.91033000 9.63591000
O 20.41369000 17.78508000 16.52109000
H 20.50329000 16.74008000 18.17375000
H 21.30404000 16.59288000 15.55055000
O 9.71052000 3.36249000 12.21659000
H 9.43822000 4.83289000 13.46199000
H 8.29892000 2.40079000 12.09889000
O 8.19554000 22.92706000 17.15310000
H 9.44688000 24.19070900 16.45640000
H 9.26337000 21.67915000 17.80640000
O 16.67588000 21.20358000 22.13961000
H 16.12658000 21.25288000 20.42521000
H 15.94668000 19.62220000 22.85891000
O 12.28270000 11.13639000 14.77876000
H 11.67140000 9.73599000 15.72186000
H 13.11410000 10.34489000 13.40249000
O 20.26660000 18.04220000 8.79001000
H 20.62160000 18.43320000 10.52730000
H 20.78270000 16.23300000 8.79543000
O 14.98880000 19.99480000 16.79329000
H 13.54830000 18.87990000 16.94857000
H 16.34690000 18.74090000 15.99580000
O 23.26190000 21.88891000 6.38331000
H 22.76570000 20.50741000 7.50451000
H 24.10330000 23.22351000 7.05231000
O 16.70816000 9.42681000 2.41859000
H 16.74850000 10.43540000 1.08409000
H 15.98202000 7.60289000 1.78612000
O 16.61350000 0.72699000 12.29320000
H 15.74050000 0.70249000 10.51090000
H 15.67580000 1.09879000 13.97550000
O 22.66138000 13.74720000 13.38651000
H 22.65258000 11.99950000 14.56891000
H 21.98175000 12.96170000 11.84341000
O 22.48501000 19.65321000 22.72602000
H 23.37441000 19.99091000 24.35817200
H 20.78111000 20.49741000 22.91678000
O 0.25361000 7.86036000 20.65668000
H 1.40211000 6.97558000 19.55768000
H 23.96080000 6.62312000 21.50988000
O 9.91589000 23.40801000 5.69932000
H 11.35459000 24.22221000 6.28421000
H 9.49259000 21.98681000 6.51086000
O 8.10244000 18.99568000 13.16471000
H 8.03456000 17.36058000 14.48151000
H 7.85945000 20.38738000 14.07091000
O 22.97991000 5.01581000 6.85941000
H 24.39542500 3.96181000 6.07992000
H 22.49524000 6.15761000 5.41713000
O 15.52755000 16.73249000 6.67935000
H 13.86389000 17.03864000 7.49880000
H 16.91716000 17.41228000 7.61759000
O 21.97169000 9.26294000 16.64410000
H 23.17184000 8.98297000 18.29740000
H 22.40590000 7.97053000 15.13390000
O 22.14950000 8.21869000 2.83135000
H 22.77530000 6.20189000 1.51038000
H 20.31310000 8.69789000 2.16315000
O 22.62960000 3.94974000 23.90721000
H 20.92590000 3.27718000 24.06781000
H 23.81780000 2.52767000 24.14781000
O 18.21350000 1.08271000 0.43832000
H 18.74120000 0.83731000 2.04662000
H 17.43780000 24.03810000 24.04041000
O 6.39869000 6.89493000 23.99970000
H 6.51719000 5.04904000 23.32270000
H 5.31959000 6.99356000 0.91371000
    
    &END COORD
  &END SUBSYS
  &DFT
    BASIS_SET_FILE_NAME  BASIS_SET
    POTENTIAL_FILE_NAME  GTH_POTENTIALS
    &QS
      EPS_DEFAULT 1.0E-10
    &END QS
    &MGRID
      NGRIDS 4
      CUTOFF 135
      REL_CUTOFF 115
    &END MGRID
    &XC
      &XC_FUNCTIONAL PADE
      &END XC_FUNCTIONAL
    &END XC
    &SCF
      SCF_GUESS ATOMIC
      EPS_SCF 1.0E-7
      MAX_SCF 300
      &DIAGONALIZATION  ON
        ALGORITHM STANDARD
      &END DIAGONALIZATION
      &MIXING  T
        METHOD BROYDEN_MIXING
        ALPHA 0.4
        NBROYDEN 8
      &END MIXING
    &END SCF
  &END DFT
  &PRINT
    &FORCES ON
    &END FORCES
  &END PRINT
&END FORCE_EVAL
