&GLOBAL
  PROJECT H2O_bulk
  RUN_TYPE ENERGY_FORCE
  PRINT_LEVEL LOW
&END GLOBAL
&FORCE_EVAL
  METHOD Quickstep
  &SUBSYS
    &KIND H
      ELEMENT   H
      BASIS_SET DZVP-GTH-PBE
      POTENTIAL GTH-PBE-q1
    &END KIND
    &KIND O
      ELEMENT   O
      BASIS_SET DZVP-GTH-PBE
      POTENTIAL GTH-PBE-q6
    &END KIND
    &CELL
      A     22.23189 0.0 0.0
      B     0.0 22.23189 0.0
      C     0.0 0.0 22.23189
    &END CELL
    &COORD

O 6.41312000 10.28560000 3.84716000
H 7.31288000 11.66050000 4.06262000
H 5.28560000 10.92970000 2.47283000
O 18.93150000 20.28860000 13.84890000
H 17.98370000 21.93480000 14.30770000
H 18.97850000 19.07260000 15.40870000
O 7.45129000 16.70450000 12.83870000
H 9.13369000 16.47840000 12.61240000
H 7.25524000 15.71660000 14.53450000
O 20.40910000 1.58411000 6.94361000
H 20.10060000 1.97988000 5.28772000
H 19.41550000 0.18518300 7.18138000
O 12.57320000 15.16910000 17.75180000
H 13.68340000 13.67670000 17.91430000
H 11.26240000 15.45330000 19.13160000
O 2.61323000 6.21273000 14.37080000
H 1.99691000 5.02466000 13.02480000
H 3.59183000 5.23073000 15.65580000
O 8.85524000 2.57904000 19.89920000
H 7.39470000 2.82596000 18.95580000
H 8.32401000 0.86012900 20.79930000
O 5.73783000 14.02970000 16.62340000
H 4.67376000 13.22050000 15.28770000
H 6.26483000 12.49410000 17.30400000
O 9.07599000 15.86250000 21.85290000
H 7.45636000 15.16580000 22.03900000
H 9.93144000 14.73360000 0.77460100
O 16.57270000 14.44860000 8.15825000
H 17.02110000 13.41270000 10.00330000
H 14.78400000 13.60550000 7.66644000
O 13.06800000 19.24880000 9.54991000
H 12.92650000 17.39010000 10.29440000
H 13.42070000 18.51500000 8.02031000
O 3.21543000 15.81370000 10.31050000
H 2.48176000 16.98700000 11.16260000
H 4.92167000 16.22960000 10.36720000
O 0.40579800 18.26790000 5.03671000
H 1.95065000 19.25770000 5.58290000
H 21.93620000 18.46740000 6.52986000
O 2.59262000 10.57020000 21.65720000
H 1.79728000 9.58508000 0.55933200
H 2.20962000 9.49404000 20.10350000
O 4.71968000 2.61951000 16.85300000
H 3.16151000 1.93259000 17.35070000
H 5.23602000 1.55606000 15.42150000
O 14.44550000 5.30942000 9.04944000
H 13.64640000 4.24391000 10.32790000
H 16.11730000 5.45273000 9.62600000
O 3.15618000 3.85913000 3.93648000
H 4.60317000 4.65059000 2.71375000
H 1.85256000 3.37633000 3.07853000
O 15.99370000 3.61190000 0.53963300
H 14.78750000 4.21556000 1.81984000
H 15.63370000 1.78856000 0.38163100
O 2.24285000 1.94798000 11.01560000
H 3.82557000 1.90958000 10.53580000
H 0.85921400 1.49288000 9.46711000
O 12.50860000 6.19121000 3.79049000
H 13.60320000 5.70043000 5.69147000
H 10.72350000 5.45834000 3.64551000
O 22.13570000 8.97100000 17.80220000
H 0.49624600 8.14546000 16.32190000
H 20.73530000 7.68900000 18.16480000
O 14.73300000 10.97270000 19.33350000
H 15.44170000 10.27220000 20.97780000
H 16.40790000 11.57360000 18.69490000
O 18.17640000 12.04670000 11.79670000
H 19.47690000 11.05720000 10.83910000
H 16.86810000 10.75200000 12.56310000
O 12.50560000 21.36800000 13.97470000
H 13.83750000 20.96020000 15.07900000
H 13.04820000 20.93610000 12.56220000
O 8.43709000 18.14780000 7.35869000
H 7.90879000 16.44290000 8.03703000
H 9.77402000 19.23780000 8.36463000
O 2.12258000 8.18402000 5.82757000
H 1.80374000 6.76389000 5.15322000
H 3.44689000 9.17156000 5.25624000
O 8.19235000 13.26340000 8.37974000
H 7.95316000 13.47590000 10.12590000
H 9.89767000 12.82530000 8.07799000
O 6.32004000 5.97247000 0.85792400
H 7.36118000 7.04403000 1.80297000
H 7.39163000 4.85631000 0.07311000
O 17.75320000 6.75476000 5.04796000
H 17.21920000 7.08759000 6.65552000
H 19.12950000 7.63745000 4.73182000
O 6.58352000 21.60090000 13.96220000
H 5.42455000 20.71180000 13.41180000
H 7.97918000 20.64520000 14.90600000
O 0.47290500 0.17658300 18.41030000
H 0.98183200 21.51180000 19.72010000
H 22.15991000 21.17970000 16.99270000
O 1.67817000 13.97870000 3.19597000
H 2.85333000 13.42240000 4.07232000
H 1.27334000 15.78130000 3.67204000
O 11.10800000 6.29133000 17.73700000
H 11.29420000 4.76191000 19.02910000
H 12.63060000 7.79666000 17.86390000
O 19.80700000 17.90020000 1.08374000
H 19.76790000 18.64000000 3.03090000
H 18.82300000 16.17570000 1.17825000
O 15.10140000 19.54840000 18.15070000
H 14.62800000 17.72190000 17.92490000
H 17.00340000 19.15330000 18.21920000
O 18.87450000 13.34760000 3.69488000
H 18.49900000 13.70940000 5.45560000
H 20.72310000 13.58990000 3.89132000
O 13.04080000 17.21520000 4.27693000
H 11.32740000 17.32310000 4.94522000
H 13.50650000 18.83090000 3.02051000
O 14.20220000 8.86452000 13.65410000
H 14.26780000 6.90148000 13.39380000
H 12.32620000 8.89578000 13.61610000
O 3.13828000 11.59700000 12.32890000
H 3.38852000 13.36020000 11.47010000
H 4.42255000 10.19700000 11.27430000
O 11.12960000 12.85040000 2.66500000
H 11.63650000 14.29480000 3.44151000
H 12.84350000 11.80960000 1.93435000
O 14.20130000 1.21663000 5.87085000
H 13.30210000 22.04340000 6.79414000
H 14.19630000 2.43573000 7.45579000
O 20.20220000 17.54870000 18.33330000
H 20.52470000 15.91980000 17.58090000
H 20.17760000 17.63980000 19.90880000
O 18.98480000 12.36010000 16.81180000
H 19.06590000 12.33280000 15.13030000
H 20.10430000 10.88280000 17.38850000
O 11.89250000 15.06940000 12.44110000
H 11.49390000 13.32600000 12.98250000
H 12.59700000 15.36730000 14.04780000
O 7.28684000 9.57071000 18.85350000
H 8.31136000 7.71724000 18.86130000
H 6.26464000 9.17295000 20.14710000
O 17.61260000 2.98385000 14.75160000
H 18.36450000 4.40427000 13.04480000
H 18.34140000 3.52731000 16.25040000
O 19.66360000 4.50173000 19.16770000
H 20.53870000 3.10464000 19.65860000
H 17.91280000 3.99090000 20.01600000
O 19.07140000 5.02261000 10.42940000
H 19.67280000 3.73046000 9.11254000
H 20.23500000 6.60369000 10.39780000
O 12.33200000 10.32910000 7.44528000
H 12.74250000 8.68659000 8.15872000
H 12.88010000 10.21110000 5.71865000
O 15.12010000 20.71080000 0.96379300
H 16.64230000 19.51280000 1.07717000
H 14.69850000 20.63060000 21.36310000
O 20.55510000 2.43467000 2.03343000
H 19.23050000 3.68227000 0.98388900
H 20.13290000 0.94116600 1.23708000
O 9.72532000 10.31670000 13.56430000
H 9.06921000 9.42397000 12.26840000
H 8.78078000 9.77641000 14.89940000
O 1.75695000 19.78760000 13.07210000
H 2.16845000 21.27840000 12.23080000
H 0.10926100 20.05200000 13.71500000
O 11.30810000 4.17358000 12.86640000
H 11.23660000 2.61543000 13.29160000
H 11.20470000 5.12353000 14.68160000
O 4.20749000 20.92970000 6.38477000
H 4.59046000 0.39661900 5.61723000
H 5.99997000 20.38310000 6.05086000
O 18.72230000 19.34380000 8.52712000
H 18.96630000 18.93640000 9.99619000
H 17.55920000 18.23090000 8.41489000
O 7.74807000 20.86600000 0.40767900
H 8.47175000 19.34230000 0.19451800
H 5.80333000 20.56810000 0.03565000
O 6.52650000 4.27946000 7.86839000
H 7.57014000 3.64789000 6.58239000
H 4.86093000 4.44487000 7.17279000
O 15.54110000 10.27600000 1.83678000
H 16.10960000 8.38005000 2.65561000
H 16.79990000 11.51750000 2.45527000
O 21.36260000 9.13684000 10.11040000
H 0.57816300 9.84773000 10.79610000
H 0.11661000 8.66999000 8.22898000
O 4.09526000 15.67590000 21.16300000
H 4.45809000 14.84300000 19.55010000
H 2.79334000 14.17920000 22.21520000
O 9.12769000 2.11773000 4.28260000
H 10.71220000 1.41681000 5.30123000
H 8.93520000 0.75887900 3.14562000
O 2.77177000 20.02510000 0.09813400
H 3.02717000 18.11620000 21.86680000
H 2.09964000 20.00060000 1.92703000
O 6.51598000 8.54705000 9.68299000
H 6.47540000 9.56794000 8.41892000
H 6.98131000 6.82287000 8.54580000
    
    &END COORD
  &END SUBSYS
  &DFT
    BASIS_SET_FILE_NAME  BASIS_SET
    POTENTIAL_FILE_NAME  GTH_POTENTIALS
    &QS
      EPS_DEFAULT 1.0E-10
    &END QS
    &MGRID
      NGRIDS 4
      CUTOFF 135
      REL_CUTOFF 115
    &END MGRID
    &XC
      &XC_FUNCTIONAL PADE
      &END XC_FUNCTIONAL
    &END XC
    &SCF
      SCF_GUESS ATOMIC
      EPS_SCF 1.0E-7
      MAX_SCF 300
      &DIAGONALIZATION  ON
        ALGORITHM STANDARD
      &END DIAGONALIZATION
      &MIXING  T
        METHOD BROYDEN_MIXING
        ALPHA 0.4
        NBROYDEN 8
      &END MIXING
    &END SCF
  &END DFT
  &PRINT
    &FORCES ON
    &END FORCES
  &END PRINT
&END FORCE_EVAL
