&GLOBAL
  PROJECT H2O_bulk
  RUN_TYPE ENERGY_FORCE
  PRINT_LEVEL LOW
&END GLOBAL
&FORCE_EVAL
  METHOD Quickstep
  &SUBSYS
    &KIND H
      ELEMENT   H
      BASIS_SET DZVP-GTH-PBE
      POTENTIAL GTH-PBE-q1
    &END KIND
    &KIND O
      ELEMENT   O
      BASIS_SET DZVP-GTH-PBE
      POTENTIAL GTH-PBE-q6
    &END KIND
    &CELL
      A     25.31736 0.0 0.0
      B     0.0 25.31736 0.0
      C     0.0 0.0 25.31736
    &END CELL
    &COORD

O 4.79907000 6.28272000 20.54140000
H 3.59347000 7.46648000 19.82890000
H 5.00558000 6.89705000 22.24020000
O 18.73910000 3.99523000 2.40878000
H 17.92450000 4.78811000 0.96819700
H 18.10390000 4.78357000 3.92260000
O 17.16830000 20.24200000 23.71320000
H 18.45920000 19.25570000 22.81050000
H 16.81850000 21.67420000 22.61300000
O 19.50130000 23.70110000 2.22029000
H 19.14220000 0.16546200 2.04377000
H 19.32450000 22.97920000 0.56036600
O 7.09584000 21.44420000 7.49705000
H 5.73925000 20.34720000 6.83794000
H 6.40625000 22.02810000 9.10189000
O 16.67190000 23.66680000 7.80764000
H 17.20100000 24.80880000 9.13252000
H 18.18730000 23.17360000 6.92047000
O 10.46120000 18.61670000 2.29948000
H 10.46090000 19.84530000 3.65080000
H 9.25916000 17.38940000 2.92055000
O 24.23320000 21.64970000 2.50838000
H 0.24681500 22.89180000 2.57131000
H 22.67280000 22.64860000 2.55023000
O 18.24490000 16.85580000 7.44139000
H 19.34640000 18.05680000 8.39467000
H 16.93520000 16.27400000 8.57154000
O 1.97706000 14.18910000 15.14300000
H 3.65036000 13.44540000 15.22380000
H 2.25572000 15.97040000 15.45990000
O 23.27520000 7.27271000 11.73040000
H 22.22180000 6.52916000 13.02740000
H 22.10830000 8.08770000 10.58100000
O 22.58140000 6.67170000 21.35110000
H 21.55390000 8.14145000 21.76960000
H 23.69270000 7.21687000 20.01080000
O 24.92910000 0.14600200 12.35270000
H 23.98040000 1.21945000 11.22050000
H 25.31080000 1.23851000 13.79240000
O 2.49217000 0.68308200 0.53127300
H 4.18008000 0.93785200 1.20177000
H 1.64417000 2.27749000 0.80049800
O 7.47378000 9.45674000 8.59046000
H 5.83922000 8.70122000 8.84657000
H 8.62797000 8.09126000 8.27779000
O 12.80580000 5.78158000 9.65760000
H 11.87200000 4.50646000 8.71927000
H 12.82090000 5.16566000 11.37250000
O 13.05890000 21.83660000 13.50480000
H 11.76890000 20.55310000 13.39510000
H 14.52890000 21.04060000 12.79000000
O 13.98250000 14.33100000 8.47974000
H 13.43330000 12.93440000 9.52156000
H 12.53030000 15.49350000 8.55341000
O 22.18860000 20.65340000 8.91685000
H 22.04730000 22.43540000 9.23901000
H 22.94510000 20.57520000 7.23843000
O 22.36660000 21.60650000 15.76210000
H 24.05580000 20.95950000 15.89120000
H 22.54150000 22.95590000 14.54700000
O 7.09030000 12.14270000 0.09767000
H 5.95542000 12.82190000 24.14590000
H 6.73080000 13.07790000 1.61635000
O 12.80840000 24.67260000 4.52504000
H 14.09830000 24.22100000 5.75703000
H 11.33850000 23.70460000 4.93800000
O 4.90530000 23.73550000 13.20470000
H 3.32077000 23.85190000 12.30770000
H 4.80662000 22.20620000 14.20460000
O 7.66553000 2.84274000 15.08550000
H 6.92565000 1.19747000 14.74690000
H 7.12321000 3.26103000 16.77290000
O 12.05060000 11.72050000 15.50440000
H 11.47780000 12.83510000 16.83140000
H 11.87080000 10.02580000 16.17920000
O 22.05640000 12.67320000 14.31230000
H 23.38610000 13.90910000 14.61680000
H 22.91890000 11.29620000 13.47100000
O 20.86730000 25.21265700 20.48810000
H 21.44370000 24.59712300 18.87830000
H 21.94460000 1.31876000 20.81060000
O 24.02670000 12.58330000 24.24320000
H 23.91640000 14.38670000 24.21200000
H 23.90060000 12.07940000 0.70645300
O 18.93290000 10.31830000 22.73460000
H 18.01080000 10.57940000 21.18150000
H 19.72570000 11.91690000 23.07570000
O 3.14386000 18.45540000 5.42753000
H 11.50180000 8.93926000 4.04262000
H 1.43545000 18.55460000 4.75882000
O 20.43080000 17.53100000 20.44960000
H 21.65160000 18.81340000 20.01080000
H 19.79070000 16.94370000 18.84270000
O 9.62549000 17.50600000 11.96110000
H 8.69639000 18.31670000 10.62640000
H 8.73260000 15.94770000 12.32530000
O 11.10950000 16.39050000 20.36690000
H 11.97680000 17.92180000 20.81150000
H 11.98750000 15.04860000 21.23760000
O 8.91084000 2.33675000 8.04095000
H 7.89550000 2.60156000 9.52906000
H 9.47491000 0.61336000 8.14645000
O 3.95372000 18.98830000 16.97600000
H 3.06559000 19.70200000 18.40480000
H 4.96616000 17.68010000 17.78080000
O 16.21270000 4.11678000 22.88380000
H 17.07150000 4.47122000 21.30150000
H 15.92350000 2.30714000 22.84490000
O 3.81532000 6.01407000 11.51230000
H 2.19510000 5.38900000 12.05570000
H 4.98409000 5.68955000 12.87090000
O 8.66118000 23.10900000 23.08390000
H 8.92258000 21.39880000 23.64180000
H 8.26203000 24.04350000 24.60490000
O 10.84010000 5.38925000 23.63210000
H 10.78320000 7.16436000 24.01380000
H 12.64830000 5.04525000 23.57610000
O 17.64400000 11.64870000 17.19420000
H 16.02490000 12.16920000 16.52640000
H 19.01070000 12.14230000 16.10010000
O 21.74840000 3.69180000 16.23000000
H 20.39220000 3.23715000 15.10550000
H 20.86730000 4.60100000 17.55780000
O 1.06285000 10.25960000 19.50800000
H 1.08049000 11.48380000 18.15560000
H 0.42395200 11.16630000 20.98370000
O 12.02660000 11.12810000 23.29640000
H 10.36210000 11.37950000 24.05090000
H 13.19160000 11.25330000 24.70460000
O 12.16830000 7.54752000 18.92180000
H 10.80970000 6.64532000 19.79130000
H 12.51230000 8.93992000 20.07700000
O 15.57900000 17.99200000 3.23239000
H 16.27130000 16.26740000 3.55210000
H 16.80380000 19.08000000 2.37507000
O 23.67640000 10.49010000 4.09065000
H 22.11400000 10.96470000 4.91726000
H 23.40510000 8.87017000 3.28524000
O 1.88117000 13.15580000 8.42858000
H 1.44139000 13.62210000 10.12240000
H 0.71193100 11.87970000 7.87065000
O 3.79789000 23.72570000 20.08620000
H 5.54551000 23.43950000 20.50800000
H 3.19735000 24.75040000 21.48240000
O 7.93423000 15.15370000 6.04445000
H 6.14983000 15.44120000 6.36703000
H 8.23164000 13.44050000 6.60767000
O 24.45750000 5.52778000 0.98536800
H 22.84060000 4.74757000 1.37994000
H 24.16720000 6.24895000 24.63160000
O 2.51589000 4.98158000 6.12417000
H 3.07519000 6.08405000 4.79522000
H 2.69365000 5.89642000 7.68196000
O 16.85190000 6.11530000 17.11470000
H 15.05620000 6.09543000 17.46630000
H 17.28740000 7.88723000 17.14600000
O 23.08460000 2.48331000 6.90758000
H 24.83574300 2.97903000 6.67675000
H 22.18320000 3.84163000 6.10836000
O 14.08970000 24.59870000 21.58760000
H 13.75620000 25.25322700 19.91010000
H 12.41860000 24.27900000 22.27970000
O 5.84637000 15.95820000 21.00110000
H 7.64525000 16.23650000 21.15130000
H 4.97097000 17.02100000 22.20960000
O 1.63309000 19.15410000 23.40400000
H 0.21688900 18.97910000 24.53085800
H 2.25978000 20.80550000 23.83310000
O 19.94330000 11.79850000 8.00593000
H 21.01280000 13.16460000 8.58776000
H 18.62420000 12.72970000 7.14031000
O 7.46717000 1.67553000 2.08507000
H 7.72547000 1.83985000 3.87986000
H 8.60412000 2.85306000 1.28127000
O 15.74820000 12.79880000 2.31467000
H 14.06650000 17.97750000 2.12318000
H 16.75210000 11.46750000 1.54616000
O 7.55285000 12.46630000 13.08910000
H 9.17203000 11.90080000 13.73450000
H 7.38117000 11.55140000 11.51560000
O 17.77540000 6.72516000 7.91532000
H 15.95810000 6.52430000 8.16127000
H 18.10530000 8.51477000 8.11750000
O 13.26580000 2.10328000 14.78940000
H 11.46820000 2.46361000 14.91260000
H 13.30810000 0.42580100 14.07890000
O 17.85720000 18.74300000 15.33730000
H 19.44560000 19.53430000 14.89450000
H 16.94380000 20.06900000 16.17690000
O 18.72570000 2.72874000 11.34670000
H 17.26910000 3.68781000 11.91640000
H 19.31170000 3.71437000 9.91919000
    
    &END COORD
  &END SUBSYS
  &DFT
    BASIS_SET_FILE_NAME  BASIS_SET
    POTENTIAL_FILE_NAME  GTH_POTENTIALS
    &QS
      EPS_DEFAULT 1.0E-10
    &END QS
    &MGRID
      NGRIDS 4
      CUTOFF 135
      REL_CUTOFF 115
    &END MGRID
    &XC
      &XC_FUNCTIONAL PADE
      &END XC_FUNCTIONAL
    &END XC
    &SCF
      SCF_GUESS ATOMIC
      EPS_SCF 1.0E-7
      MAX_SCF 300
      &DIAGONALIZATION  ON
        ALGORITHM STANDARD
      &END DIAGONALIZATION
      &MIXING  T
        METHOD BROYDEN_MIXING
        ALPHA 0.4
        NBROYDEN 8
      &END MIXING
    &END SCF
  &END DFT
  &PRINT
    &FORCES ON
    &END FORCES
  &END PRINT
&END FORCE_EVAL
