&GLOBAL
  PROJECT H2O_bulk
  RUN_TYPE ENERGY_FORCE
  PRINT_LEVEL LOW
&END GLOBAL
&FORCE_EVAL
  METHOD Quickstep
  &SUBSYS
    &KIND H
      ELEMENT   H
      BASIS_SET DZVP-GTH-PBE
      POTENTIAL GTH-PBE-q1
    &END KIND
    &KIND O
      ELEMENT   O
      BASIS_SET DZVP-GTH-PBE
      POTENTIAL GTH-PBE-q6
    &END KIND
    &CELL
      A     23.98081 0.0 0.0
      B     0.0 23.98081 0.0
      C     0.0 0.0 23.98081
    &END CELL
    &COORD

O 22.49310000 18.89650000 7.04580000
H 23.69484700 18.22490000 5.81571000
H 21.04350000 17.79850000 6.90074000
O 14.07680000 23.05540000 19.47790000
H 15.66440000 23.92750000 19.30470000
H 13.06710000 0.25936700 20.47670000
O 14.17860000 18.35630000 21.83150000
H 14.29940000 17.46880000 20.28590000
H 14.42230000 20.10120000 21.37970000
O 9.05333000 17.18570000 8.30105000
H 10.63310000 16.99400000 9.17005000
H 8.30534000 18.68010000 9.01352000
O 17.10330000 9.25086000 8.56637000
H 16.04480000 10.72190000 8.36655000
H 16.84140000 8.11982000 7.10897000
O 1.00941000 20.74970000 19.56770000
H 1.43583000 20.03740000 21.23310000
H 23.15180000 20.80530000 19.62900000
O 4.82094000 13.62580000 7.71788000
H 5.96930000 14.78680000 8.51432000
H 3.87805000 12.94640000 9.09466000
O 11.38410000 2.52885000 22.00060000
H 12.06370000 4.02099000 22.80460000
H 10.45490000 1.61638000 23.30540000
O 20.21660000 5.43116000 10.88090000
H 18.79580000 6.92692000 10.93560000
H 22.08380000 5.76229000 10.96420000
O 4.52011000 23.90392100 3.70570000
H 5.03037000 0.15905500 5.40769000
H 6.14915000 23.67160000 2.84221000
O 19.58980000 0.05649000 13.19260000
H 18.70380000 23.51550000 11.76000000
H 20.34360000 1.66324000 12.71270000
O 6.14839000 5.67128000 10.61100000
H 7.66765000 6.61427000 10.62800000
H 5.70383000 5.43530000 12.39670000
O 18.76970000 23.05500000 1.45511000
H 18.35430000 0.80827000 1.05766000
H 20.40550000 23.17460000 2.33225000
O 9.61430000 1.83159000 16.84940000
H 10.49050000 2.51781000 15.41900000
H 10.52650000 2.42300000 18.32420000
O 20.98350000 4.02777000 5.90242000
H 21.91800000 2.50302000 5.60416000
H 20.80640000 4.26719000 7.73880000
O 8.03301000 8.32973000 18.51610000
H 8.95241000 9.70800000 17.73550000
H 7.00562000 7.62262000 17.19270000
O 15.07430000 17.14310000 8.44363000
H 15.22300000 18.67950000 7.52903000
H 16.47680000 16.14740000 7.88179000
O 14.73130000 0.45911900 10.63180000
H 13.58500000 23.29720000 11.37710000
H 14.35630000 2.08775000 11.42150000
O 23.05180000 23.40800000 4.28147000
H 22.91080000 21.97920000 5.40284000
H 0.01893600 22.77450000 2.85067000
O 6.07340000 17.03260000 19.63050000
H 4.71742000 16.77610000 20.89900000
H 7.55204000 17.24020000 20.65610000
O 8.80603000 13.18290000 15.82060000
H 10.29490000 14.05440000 15.14710000
H 7.79305000 14.36630000 16.64610000
O 9.91204000 9.82495000 4.23251000
H 10.07460000 11.54060000 3.77427000
H 8.49539000 9.14914000 3.50301000
O 7.12434000 1.21776000 8.10084000
H 6.79419000 2.82302000 8.95355000
H 6.85398000 23.86321500 9.34368000
O 5.06929000 3.78425000 15.63010000
H 3.98159000 3.53501000 17.08580000
H 6.73778000 3.22582000 16.20500000
O 16.62570000 14.70660000 1.16022000
H 15.83440000 13.59830000 23.94050000
H 16.78250000 16.27720000 0.28917100
O 13.28310000 20.21280000 14.43940000
H 13.03520000 21.63190000 15.58440000
H 11.97340000 19.02760000 14.88120000
O 0.50114400 7.95497000 14.27620000
H 23.49040000 8.88912000 13.00320000
H 22.97630000 6.84002000 16.51890000
O 12.23080000 4.95097000 13.65140000
H 13.43230000 5.50607000 14.93360000
H 11.48730000 6.53504000 13.01510000
O 18.49820000 1.90896000 17.65940000
H 20.07230000 2.79912000 17.22920000
H 18.16730000 1.10051000 16.03980000
O 20.84900000 8.96079000 21.27280000
H 19.32240000 9.97671000 21.19910000
H 20.73330000 8.15549000 22.88020000
O 19.83760000 21.57830000 20.32350000
H 19.58180000 23.20130000 19.54230000
H 19.24220000 21.72380000 22.05890000
O 1.94303000 7.49020000 7.37735000
H 1.39814000 6.40514000 6.06490000
H 3.35576000 6.67939000 8.21387000
O 16.28690000 7.31907000 16.36750000
H 17.30230000 8.66442000 15.56120000
H 17.37600000 5.85878000 16.63130000
O 1.04966000 20.49990000 11.36900000
H 23.79840700 20.53060000 9.99738000
H 0.31936300 19.30790000 12.54040000
O 19.39370000 14.89590000 5.47139000
H 18.66670000 14.87510000 3.76904000
H 20.86810000 13.83780000 5.42040000
O 11.81470000 1.61553000 6.53235000
H 12.86280000 1.09844000 7.94189000
H 10.10830000 1.68292000 7.26976000
O 1.05545000 17.75930000 23.48180000
H 1.83640000 16.91220000 0.86534900
H 0.38544600 16.42330000 22.37940000
O 10.45050000 9.09327000 10.67590000
H 11.22130000 10.73040000 10.98770000
H 10.69800000 8.81213000 8.89910000
O 15.65140000 10.17250000 20.95310000
H 15.76320000 9.37980000 19.30430000
H 14.90540000 8.84194000 21.99220000
O 21.97480000 10.71650000 9.93754000
H 20.36380000 10.22720000 9.33317000
H 23.14920000 9.76994000 8.90603000
O 18.32150000 11.74890000 14.71090000
H 19.35620000 12.41050000 13.35880000
H 17.89030000 13.18810000 15.75390000
O 17.75380000 16.08850000 18.14000000
H 19.37830000 16.12880000 19.02190000
H 17.60760000 17.77110000 17.54580000
O 9.41907000 23.42780000 1.78517000
H 9.61471000 21.60530000 1.42096000
H 10.35690000 23.80683400 3.30192000
O 6.61630000 21.22710000 11.15270000
H 6.98186000 21.24260000 12.91810000
H 4.84470000 20.92110000 10.99220000
O 18.07500000 3.75911000 23.38960000
H 16.75800000 4.62174000 0.33150200
H 17.34950000 3.47025000 21.75120000
O 13.52200000 13.41460000 12.71840000
H 15.25730000 12.78220000 13.00110000
H 13.61850000 14.85310000 11.59670000
O 3.38584000 18.54440000 4.33765000
H 4.05841000 20.13730000 4.93865000
H 4.10765000 17.23650000 5.32343000
O 0.85292200 2.32767000 12.08060000
H 0.89498100 0.56077700 11.71220000
H 2.48725000 2.74027000 12.75610000
O 23.94867700 11.58370000 4.34903000
H 0.77673400 11.09150000 5.90166000
H 1.37055000 12.19200000 3.30118000
O 5.38474000 8.67539000 23.58300000
H 6.06164000 8.09126000 22.00970000
H 4.02182000 7.58976000 0.13889200
O 15.80590000 4.94362000 5.30421000
H 17.40150000 4.12901000 4.89932000
H 14.75320000 3.67529000 6.05744000
O 22.25000000 7.15375000 2.01976000
H 21.84330000 6.08688000 3.43627000
H 22.75330000 8.79400000 2.75476000
O 4.10543000 12.92830000 1.67289000
H 5.18428000 13.05280000 3.11941000
H 4.73044000 11.46740000 0.65816800
O 9.55513000 18.59460000 0.07310400
H 10.98570000 18.92490000 22.92410000
H 10.37640000 17.82590000 1.53745000
O 23.97942500 16.94880000 15.22920000
H 1.22242000 15.87880000 14.39440000
H 0.92528200 18.38090000 15.89540000
O 22.62440000 14.64040000 20.31400000
H 22.45600000 12.90520000 19.87100000
H 23.82100000 15.34020000 19.12660000
O 13.43270000 6.66463000 0.80361500
H 12.78500000 8.06832000 1.77630000
H 13.93300000 5.54866000 2.16731000
O 1.70163000 2.02054000 20.04440000
H 2.01670000 2.41963000 21.81060000
H 1.54402000 0.19138000 19.86940000
O 11.37840000 15.26400000 4.05413000
H 10.83220000 15.62030000 5.80524000
H 13.04550000 15.92140000 3.92375000
O 2.25159000 4.10275000 0.55480700
H 0.99891900 5.35109000 1.12560000
H 3.04980000 3.24743000 1.97744000
O 7.91730000 20.96670000 16.08310000
H 8.83637000 22.30880000 16.94800000
H 6.80999000 20.17490000 17.29570000
O 22.10740000 5.32351000 18.13450000
H 21.21780000 6.28995000 19.52450000
H 23.46830000 4.16209000 18.84620000
O 4.23900000 12.76130000 13.35360000
H 5.97071000 12.37280000 13.88510000
H 3.14506000 11.76050000 14.43150000
O 14.90040000 21.14650000 4.43718000
H 14.69260000 22.40920000 5.67392000
H 16.27550000 21.80850000 3.38376000
    
    &END COORD
  &END SUBSYS
  &DFT
    BASIS_SET_FILE_NAME  BASIS_SET
    POTENTIAL_FILE_NAME  GTH_POTENTIALS
    &QS
      EPS_DEFAULT 1.0E-10
    &END QS
    &MGRID
      NGRIDS 4
      CUTOFF 135
      REL_CUTOFF 115
    &END MGRID
    &XC
      &XC_FUNCTIONAL PADE
      &END XC_FUNCTIONAL
    &END XC
    &SCF
      SCF_GUESS ATOMIC
      EPS_SCF 1.0E-7
      MAX_SCF 300
      &DIAGONALIZATION  ON
        ALGORITHM STANDARD
      &END DIAGONALIZATION
      &MIXING  T
        METHOD BROYDEN_MIXING
        ALPHA 0.4
        NBROYDEN 8
      &END MIXING
    &END SCF
  &END DFT
  &PRINT
    &FORCES ON
    &END FORCES
  &END PRINT
&END FORCE_EVAL
