&GLOBAL
  PROJECT H2O_bulk
  RUN_TYPE ENERGY_FORCE
  PRINT_LEVEL LOW
&END GLOBAL
&FORCE_EVAL
  METHOD Quickstep
  &SUBSYS
    &KIND H
      ELEMENT   H
      BASIS_SET DZVP-GTH-PBE
      POTENTIAL GTH-PBE-q1
    &END KIND
    &KIND O
      ELEMENT   O
      BASIS_SET DZVP-GTH-PBE
      POTENTIAL GTH-PBE-q6
    &END KIND
    &CELL
      A     24.68619 0.0 0.0
      B     0.0 24.68619 0.0
      C     0.0 0.0 24.68619
    &END CELL
    &COORD

O 24.49860000 21.06863000 16.15568000
H 22.75740000 21.04188000 15.37938000
H 24.68580000 19.35052000 17.32278000
O 0.80842000 24.11541000 20.78267000
H 2.11252000 0.21052000 19.98379000
H 0.33202000 22.71701000 19.62236000
O 12.74760000 1.81027000 16.84980000
H 13.14400000 2.93532000 18.22820000
H 12.53490000 0.08915400 17.50820000
O 19.30014000 15.39476000 21.99224000
H 20.98361000 14.32619000 22.16502000
H 19.69917000 16.92935000 23.14773000
O 6.11935000 6.72701000 19.24310000
H 7.03979000 7.84911000 20.50240000
H 7.00292000 6.11321000 17.67450000
O 19.86511000 10.38670000 7.26695000
H 18.70380000 11.55030000 8.02475000
H 19.20771000 10.27760000 5.37888000
O 20.75211000 4.54531000 14.01970000
H 22.57251000 4.75391000 13.95490000
H 20.11481000 2.88981000 14.08160000
O 0.24047000 17.56348000 7.75712000
H 1.49529000 18.64298000 8.61978000
H 23.95274300 19.41168000 7.17874000
O 6.32101000 14.10648000 19.50810000
H 5.00591000 14.17178000 17.97550000
H 6.49431000 12.42458000 20.18380000
O 9.85807000 20.84988000 24.61298000
H 11.70020000 21.42908000 0.03309000
H 9.53872000 20.00888000 1.72159000
O 13.30869000 0.97147700 7.72829000
H 13.09749000 2.32212000 6.40531000
H 11.89709000 0.76344200 8.43249000
O 13.47729000 5.18641000 3.77962000
H 11.84739000 5.69151000 3.58502000
H 13.81619000 3.79161000 2.36152000
O 11.77710000 15.31178000 8.70949000
H 12.63370000 15.21768000 7.12569000
H 10.65220000 14.10008000 8.85129000
O 4.24461000 14.50660000 14.73481000
H 2.21561000 14.36780000 15.24721000
H 4.08851000 13.33050000 13.11991000
O 23.90959600 0.62495300 4.70908000
H 24.58025100 24.11591400 2.98617000
H 1.04316000 1.23467000 5.10825000
O 17.09168000 22.16960000 7.17321000
H 15.96478000 23.59120000 6.81281000
H 16.33748000 20.55240000 6.37051000
O 15.88568000 12.40670000 24.28880000
H 14.89898000 11.63430000 23.02570000
H 17.39708000 13.34480000 23.86340000
O 3.08879000 17.64622000 2.38939000
H 1.94419000 17.41012000 4.00909000
H 3.44859000 15.90132000 1.72569000
O 19.20202000 20.35720000 14.02691000
H 18.37232000 21.39080000 12.87031000
H 17.99892000 19.54080000 14.77421000
O 7.46422000 4.67059000 3.10242000
H 6.81102000 3.58859000 4.35338000
H 8.08622000 3.71379000 1.73368000
O 4.37851000 19.34400000 12.60699000
H 6.21241000 19.14920000 11.78819000
H 4.35791000 17.56550000 13.28299000
O 9.39839000 5.25353000 14.65472000
H 10.16549000 6.59932000 13.77902000
H 10.84029000 4.25691000 15.55082000
O 8.46204000 1.18691000 23.13917000
H 9.58249000 1.88791000 21.87128000
H 8.96271000 24.07729900 23.52262000
O 20.46961000 4.44754000 1.65371000
H 20.34081000 5.99593000 2.42481000
H 21.50101000 3.44923000 2.72171000
O 24.44692300 12.18912000 7.00851000
H 22.84932000 11.28812000 6.73821000
H 24.37524100 13.90662000 7.57301000
O 12.62660000 8.73191000 11.55860000
H 11.03730000 8.80991000 10.29890000
H 13.95400000 8.11501000 10.43870000
O 7.91899000 18.78870000 20.04220000
H 7.56689000 16.96110000 19.96030000
H 8.43489000 19.29240000 21.66770000
O 7.11451000 10.08471000 2.91602000
H 7.72261000 8.26501000 3.26792000
H 5.55851000 10.17921000 2.81452000
O 13.76330000 10.21941000 20.76770000
H 14.43610000 10.57421000 19.14260000
H 14.15630000 8.19961000 20.84640000
O 6.51735000 22.28598000 16.68310000
H 5.37293000 21.23048000 15.39100000
H 7.01213000 21.13938000 17.88610000
O 24.27478300 22.03490000 0.75294700
H 0.61019700 20.76630000 1.37110000
H 24.58870800 22.97760000 23.68786500
O 1.21482000 3.38737000 14.08190000
H 1.07148000 1.68105000 12.90990000
H 1.76138000 2.97390000 15.65320000
O 15.10848000 5.30752000 20.86358000
H 16.66528000 5.72692000 20.21598000
H 15.51968000 4.01492000 21.73208000
O 4.39734000 2.62262000 7.68929000
H 3.91989000 3.99902000 9.07929000
H 3.42389000 1.39152000 8.66169000
O 13.27398000 15.29141000 2.81998000
H 14.00408000 14.06711000 1.79619000
H 11.63928000 15.56261000 2.61594000
O 16.19930000 10.84911000 16.16280000
H 15.64050000 9.72051000 14.55600000
H 17.86240000 9.63951000 16.50430000
O 8.31029000 10.84859000 8.32560000
H 8.35389000 10.47439000 6.67342000
H 6.47239000 10.90319000 8.95938000
O 3.90568000 1.87023000 17.95480000
H 4.95908000 0.34672500 17.73280000
H 4.86268000 3.24355000 18.43980000
O 3.24649000 10.92589000 10.76391000
H 2.93839000 8.85079000 11.60941000
H 1.55949000 11.12049000 9.77901000
O 17.00940000 17.63960000 5.30691000
H 17.07800000 16.34400000 6.52901000
H 15.52210000 17.19510000 4.58031000
O 1.06799000 24.11467400 11.10071000
H 1.51139000 22.71274000 12.16081000
H 24.44138000 23.08147000 10.08321000
O 17.42031000 6.06564000 9.41331000
H 18.94711000 5.56133000 10.15201000
H 17.79601000 7.13382000 7.91221000
O 15.09835000 17.31258000 15.88621000
H 15.74976000 15.73108000 15.89208000
H 13.24889000 17.20948000 14.94121000
O 4.82752000 6.03059000 11.83929000
H 6.47722000 5.83219000 12.62259000
H 3.41222000 5.41379000 13.02869000
O 8.61872000 0.88611700 9.76785000
H 8.75909000 2.31092000 11.27050000
H 6.90346000 1.60241000 8.85675000
O 15.19918000 21.77476000 23.68501000
H 14.21538000 21.97859000 22.20291000
H 16.30298000 20.26762000 23.96611000
O 10.34060000 16.56131000 14.04949000
H 9.42789000 15.57621000 15.31348000
H 10.58850000 15.99177000 12.32429000
O 21.50050000 16.64240000 12.19410000
H 20.71220000 18.26430000 12.35960000
H 22.63860000 16.63830000 10.67910000
O 12.60580000 21.06320000 18.93718000
H 10.96700000 20.52550000 19.75615000
H 13.15310000 19.05080000 18.11909000
O 22.22470000 22.15731000 8.09271000
H 20.49990000 21.67821000 7.96531000
H 22.83280000 23.32951000 6.76741000
O 17.48951000 8.83448000 3.06601000
H 16.83024000 9.46415000 1.44170000
H 15.85270000 7.99726000 3.54922000
O 17.04840000 1.19419000 12.58960000
H 16.85570000 1.63809000 10.80280000
H 15.49440000 1.47139000 13.67180000
O 23.96323600 15.49890000 16.81521000
H 23.04592000 13.99530000 17.31781000
H 23.03118000 14.99390000 15.31921000
O 19.48171000 19.02441000 0.91042600
H 20.57611000 20.15291000 0.66138300
H 19.05331000 18.45391000 2.72441000
O 22.47770000 11.63890000 20.41928000
H 24.12750000 10.75900000 21.04768000
H 21.62440000 10.26130000 19.90628000
O 7.73459000 18.27301000 3.82315000
H 6.14379000 17.36961000 3.06504000
H 7.53139000 18.45151000 5.66004000
O 8.61408000 19.69848000 9.56191000
H 10.30420000 18.62048000 9.51471000
H 9.33096000 21.15218000 10.13551000
O 2.28079000 12.22121000 2.23859000
H 1.35497000 12.05391000 3.77060000
H 1.47097000 11.30261000 1.11581000
O 17.43777000 14.58289000 9.85257000
H 16.17732000 15.49651000 10.35800000
H 19.11015000 15.03244000 10.72070000
O 19.63425000 6.51591000 18.56450000
H 20.89194000 5.66879000 19.50130000
H 19.98629000 5.55760000 17.00320000
O 1.76261000 8.82879000 22.06694000
H 0.64851000 7.60879000 22.86382000
H 2.63051000 7.89489000 21.24830000
O 23.41490000 4.46650000 21.81681000
H 22.57990000 4.10163000 23.33701000
H 24.44890000 3.21892000 21.56551000
O 15.86990000 2.10031000 0.48392000
H 17.72490000 2.14831000 1.00492000
H 15.23630000 0.20901000 0.22282000
O 8.43519000 9.61306000 22.57070000
H 9.98629000 10.14920000 21.98990000
H 8.52089000 9.72554000 24.65810000
    
    &END COORD
  &END SUBSYS
  &DFT
    BASIS_SET_FILE_NAME  BASIS_SET
    POTENTIAL_FILE_NAME  GTH_POTENTIALS
    &QS
      EPS_DEFAULT 1.0E-10
    &END QS
    &MGRID
      NGRIDS 4
      CUTOFF 135
      REL_CUTOFF 115
    &END MGRID
    &XC
      &XC_FUNCTIONAL PADE
      &END XC_FUNCTIONAL
    &END XC
    &SCF
      SCF_GUESS ATOMIC
      EPS_SCF 1.0E-7
      MAX_SCF 300
      &DIAGONALIZATION  ON
        ALGORITHM STANDARD
      &END DIAGONALIZATION
      &MIXING  T
        METHOD BROYDEN_MIXING
        ALPHA 0.4
        NBROYDEN 8
      &END MIXING
    &END SCF
  &END DFT
  &PRINT
    &FORCES ON
    &END FORCES
  &END PRINT
&END FORCE_EVAL
