&GLOBAL
  PROJECT H2O_bulk
  RUN_TYPE ENERGY_FORCE
  PRINT_LEVEL LOW
&END GLOBAL
&FORCE_EVAL
  METHOD Quickstep
  &SUBSYS
    &KIND H
      ELEMENT   H
      BASIS_SET DZVP-GTH-PBE
      POTENTIAL GTH-PBE-q1
    &END KIND
    &KIND O
      ELEMENT   O
      BASIS_SET DZVP-GTH-PBE
      POTENTIAL GTH-PBE-q6
    &END KIND
    &CELL
      A     24.28313 0.0 0.0
      B     0.0 24.28313 0.0
      C     0.0 0.0 24.28313
    &END CELL
    &COORD

O 19.54550000 2.57153000 16.72436000
H 20.14080000 3.86348000 18.23116000
H 18.49860000 1.29144000 16.73236000
O 19.28277000 18.63307000 9.34505000
H 20.94377000 18.64117000 8.83510000
H 18.42747000 19.69347000 8.21720000
O 13.80330000 22.63193000 20.38350000
H 12.30550000 21.63500000 19.59270000
H 14.74960000 22.39888000 19.18090000
O 19.69768000 18.10260000 19.87721000
H 20.33101000 18.48630000 18.13223000
H 21.40884000 17.93418000 20.80936000
O 6.32690000 4.83887000 0.52597000
H 7.35693000 6.46777000 0.62097000
H 7.39791000 3.90277000 23.43970000
O 1.69956000 17.95120000 8.66319000
H 1.48401000 16.19830000 8.23504000
H 2.83465000 18.50690000 7.53430000
O 13.29987000 21.46960000 11.89480000
H 14.35997000 20.94270000 10.37930000
H 12.65867000 19.91780000 12.58070000
O 24.27733500 2.11843000 13.53430000
H 0.13173100 0.17933000 13.09230000
H 22.55212000 2.04593000 14.37010000
O 8.36967000 11.73826000 18.85500000
H 9.65647000 10.48376000 18.71000000
H 9.22837000 13.30676000 19.31190000
O 7.26677000 21.01696000 1.86203000
H 8.97647000 20.22946000 1.59443000
H 7.12093000 22.45236000 3.25003000
O 12.39273000 0.90787900 4.16539000
H 10.63733000 1.40295000 4.36537000
H 12.89153000 0.00030100 2.70359000
O 13.28953000 8.26487000 1.88674000
H 14.47086000 8.86317000 0.63014000
H 11.44923000 9.06687000 2.10744000
O 12.48740000 18.00426000 5.27113000
H 14.29770000 17.66716000 5.26093000
H 12.59140000 17.42936000 7.25903000
O 1.44817000 21.38780000 12.99097000
H 1.41017000 20.17460000 11.74177000
H 2.50927000 20.39700000 14.26107000
O 20.13186000 6.08813000 20.49283000
H 21.89212000 6.80814000 20.12590000
H 20.70867000 5.32448000 22.45767000
O 22.39126000 19.77980000 4.22497000
H 23.64766000 19.11510000 5.29767000
H 22.46536000 21.47710000 4.71847000
O 15.56866000 14.97120000 20.42010000
H 15.20726000 15.04510000 18.63330000
H 17.01716000 15.94880000 20.79130000
O 8.23423000 9.87174000 2.29553000
H 7.55493000 9.78954000 4.03253000
H 7.27383000 10.69154000 0.88823000
O 16.79034000 22.04840000 16.26987000
H 15.97524000 22.52400000 14.81847000
H 17.82454000 20.55020000 15.46087000
O 7.35004000 1.64423000 4.44065000
H 6.76544000 1.53273000 6.34598000
H 6.46024000 2.87503000 3.62169000
O 9.41477000 16.01940000 8.81723000
H 9.05687000 14.44410000 8.03413000
H 9.67017000 16.22750000 10.62233000
O 12.45503000 5.96784000 11.39004000
H 11.54693000 4.23147000 11.30884000
H 14.04233000 5.85642000 12.06114000
O 9.84474000 1.97370000 21.53425000
H 11.14320000 0.92024300 20.82938000
H 8.38075000 1.55265000 20.66573000
O 16.95227000 10.89940000 23.53170000
H 16.65607000 12.15530000 22.32380000
H 17.13097000 9.43064000 22.35120000
O 0.42143500 13.80354000 5.91427000
H 22.91216000 13.68124000 5.15337000
H 1.66257000 13.59014000 4.51557000
O 8.26884000 11.16337000 7.38379000
H 7.58307000 10.33967000 8.81747000
H 9.93264000 10.34897000 7.61755000
O 9.34663000 20.02730000 18.13770000
H 8.08463000 21.56350000 18.60960000
H 9.87493000 18.90710000 19.53790000
O 2.50707000 8.09777000 1.77304000
H 1.56227000 9.17717000 0.38454000
H 3.14737000 6.71437000 1.05114000
O 12.06580000 8.39177000 16.89610000
H 11.02020000 7.36097000 15.58520000
H 12.68610000 7.20627000 17.90780000
O 20.69159000 3.78803000 0.83857000
H 19.15655000 3.03513000 1.64577000
H 22.17382000 2.97713000 1.50937000
O 5.14282000 12.62850000 22.74655000
H 6.00670000 11.94170000 21.00268000
H 3.29842000 11.90770000 23.00200000
O 3.59142000 3.16089000 17.06920000
H 1.99097000 3.03434000 15.73510000
H 3.23533000 4.49328000 17.73220000
O 14.16196000 5.68724000 20.65726000
H 13.11746000 4.28164000 20.40536000
H 13.64436000 6.33064000 22.34256000
O 3.98955000 0.07954000 8.31813000
H 4.50410000 0.36034000 10.21573000
H 4.50608000 22.65307000 7.72263000
O 19.74606000 12.77467000 3.40977000
H 18.97466000 12.08947000 1.74347000
H 20.53706000 11.24207000 4.20593000
O 21.20970000 10.42377000 13.39560000
H 20.34210000 11.84407000 12.57690000
H 22.27460000 9.56457000 11.99410000
O 10.55913000 1.26993000 10.20050000
H 10.85623000 1.62303000 8.30024000
H 11.58833000 24.01366000 10.43820000
O 2.74426000 7.45551000 20.13230000
H 3.69576000 8.66601000 18.80010000
H 4.17956000 7.11329000 21.14290000
O 5.16373000 8.51923000 11.23587000
H 5.82823000 6.81283000 10.66737000
H 3.43583000 8.00493000 10.79747000
O 17.12470000 18.08030000 2.87657000
H 18.57830000 18.97450000 3.53017000
H 17.94800000 16.46230000 2.66707000
O 5.23443000 23.48151200 19.79357000
H 3.66913000 22.35942000 20.50007000
H 4.66043000 0.53637200 18.81137000
O 18.37777000 2.80814000 8.15587000
H 18.78007000 4.21624000 9.50867000
H 17.61407000 3.20687000 6.72797000
O 16.78967000 12.82326000 10.45083000
H 17.70645000 14.15756000 9.56423000
H 15.66571000 11.84036000 9.34623000
O 6.47234000 3.59123000 12.34423000
H 8.12174000 2.43293000 12.15663000
H 5.81314000 3.22773000 14.03803000
O 15.60970000 22.39344000 7.27487000
H 16.23790000 24.23381200 7.74622000
H 14.09400000 22.50312000 6.06791000
O 10.66996000 15.71066000 21.32617000
H 12.39346000 16.05371000 21.13127000
H 9.67776000 15.49755000 22.87327000
O 4.40074000 10.14873000 16.53308000
H 5.81189000 11.19823000 16.86379000
H 4.94148000 9.61683000 14.96629000
O 20.56480000 19.21030000 14.51300000
H 20.48760000 18.71040000 12.75430000
H 22.10340000 19.84480000 14.45510000
O 10.66740000 17.50310000 13.92013000
H 11.45360000 16.13000000 15.34023000
H 9.66179000 18.19540000 15.04389000
O 22.69570000 1.02714000 5.36437000
H 21.43830000 1.70624000 6.41807000
H 24.15260000 0.91944000 6.91137000
O 0.02785100 6.88215000 10.30150000
H 23.79264900 5.01336000 11.01550000
H 23.30997500 7.23284000 8.85962000
O 12.67140000 21.19406000 0.79907000
H 13.87620000 20.35626000 1.65627000
H 13.02310000 21.72216000 23.50760000
O 23.67238600 17.03400000 23.64617000
H 0.92605100 17.87630000 23.54007000
H 22.87878000 18.12030000 0.78044000
O 9.33887000 15.79347000 1.91075000
H 10.53807000 16.57557000 3.32647000
H 9.07167000 13.93917000 2.80988000
O 3.06997000 17.58250000 17.02106000
H 2.08857000 16.42310000 16.61376000
H 3.33967000 17.76510000 18.73926000
O 4.45153000 18.02317000 22.59729000
H 4.74743000 16.27577000 22.43389000
H 5.18303000 18.30347000 0.07820300
O 5.73022000 19.70136000 6.63087000
H 7.28613000 18.65916000 7.86357000
H 6.01111000 19.98796000 4.48607000
O 22.30975000 8.03217000 5.21771000
H 24.00214200 8.62227000 4.43681000
H 21.70461000 6.61787000 3.99338000
O 13.29963000 9.34413000 7.27463000
H 13.13133000 7.84603000 8.57212000
H 13.86713000 9.14193000 5.55740000
O 17.87438000 5.82255000 12.22340000
H 18.27580000 7.57875000 12.78340000
H 18.63153000 4.99625000 13.62780000
O 24.14760000 11.58893000 22.76761000
H 0.29907000 11.31483000 20.98075000
H 0.04387000 13.54253000 23.43087700
O 0.09427000 13.13500000 16.86407000
H 23.51790000 12.30260000 15.52137000
H 1.77237000 12.09940000 16.42267000
O 16.17880000 3.82207000 3.96184000
H 14.59570000 2.92257000 3.86214000
H 15.82260000 5.47337000 3.08854000
O 14.11933000 13.61790000 15.53280000
H 14.71742000 13.33430000 13.75900000
H 13.34193000 11.95090000 15.84620000
    
    &END COORD
  &END SUBSYS
  &DFT
    BASIS_SET_FILE_NAME  BASIS_SET
    POTENTIAL_FILE_NAME  GTH_POTENTIALS
    &QS
      EPS_DEFAULT 1.0E-10
    &END QS
    &MGRID
      NGRIDS 4
      CUTOFF 135
      REL_CUTOFF 115
    &END MGRID
    &XC
      &XC_FUNCTIONAL PADE
      &END XC_FUNCTIONAL
    &END XC
    &SCF
      SCF_GUESS ATOMIC
      EPS_SCF 1.0E-7
      MAX_SCF 300
      &DIAGONALIZATION  ON
        ALGORITHM STANDARD
      &END DIAGONALIZATION
      &MIXING  T
        METHOD BROYDEN_MIXING
        ALPHA 0.4
        NBROYDEN 8
      &END MIXING
    &END SCF
  &END DFT
  &PRINT
    &FORCES ON
    &END FORCES
  &END PRINT
&END FORCE_EVAL
