&GLOBAL
  PROJECT H2O_bulk
  RUN_TYPE ENERGY_FORCE
  PRINT_LEVEL LOW
&END GLOBAL
&FORCE_EVAL
  METHOD Quickstep
  &SUBSYS
    &KIND H
      ELEMENT   H
      BASIS_SET DZVP-GTH-PBE
      POTENTIAL GTH-PBE-q1
    &END KIND
    &KIND O
      ELEMENT   O
      BASIS_SET DZVP-GTH-PBE
      POTENTIAL GTH-PBE-q6
    &END KIND
    &CELL
      A     24.65701 0.0 0.0
      B     0.0 24.65701 0.0
      C     0.0 0.0 24.65701
    &END CELL
    &COORD

O 5.74482000 7.81289000 1.40933000
H 4.55770000 8.27647000 0.49707100
H 5.20014000 8.13345000 3.09303000
O 22.75040000 22.10240000 12.82030000
H 24.23470000 20.89300000 13.09340000
H 22.49870000 22.90800000 14.49970000
O 8.38794000 13.57710000 6.28830000
H 7.75527000 12.26990000 5.48643000
H 10.01870000 13.65000000 5.31919000
O 15.42860000 22.89230000 7.95803000
H 14.69740000 21.52280000 7.70565000
H 15.28590000 23.01040000 9.71923000
O 6.69845000 16.13590000 22.72680000
H 6.58129000 16.52250000 21.07190000
H 6.51768000 17.48980000 23.56780000
O 15.97820000 11.54780000 11.04050000
H 15.84190000 13.31480000 11.54330000
H 14.72670000 10.65200000 11.65590000
O 24.28960000 4.22488000 13.31600000
H 24.51092000 5.43831000 14.46390000
H 23.16570000 3.35049000 13.93230000
O 2.72525000 18.18400000 13.39200000
H 2.42461000 16.44420000 12.88720000
H 3.77257000 18.98900000 11.98760000
O 12.71380000 19.69780000 4.86001000
H 13.66480000 18.27200000 5.22013000
H 11.97660000 19.04430000 3.25654000
O 0.05037200 0.27912000 8.10257000
H 24.10480800 24.09530000 10.61590000
H 23.96357900 1.97693000 8.49420000
O 16.92610000 17.03040000 13.72900000
H 18.26330000 16.52010000 12.72150000
H 17.78850000 16.36430000 15.18090000
O 11.08430000 2.93495000 3.08509000
H 12.25550000 1.79402000 2.76467000
H 12.13060000 4.97020000 2.99816000
O 7.38592000 17.95550000 3.39004000
H 6.56263000 19.06850000 4.36131000
H 8.83848000 17.41290000 4.40331000
O 21.51620000 9.23262000 17.31100000
H 22.13640000 7.65417000 16.91600000
H 19.44620000 9.07047000 17.89850000
O 3.04176000 17.88210000 18.51240000
H 2.76388000 16.07100000 18.21850000
H 2.53307000 18.69120000 17.13400000
O 1.77420000 16.03210000 6.06092000
H 3.11742000 15.34100000 6.24659000
H 0.93297300 15.62810000 8.07693000
O 19.76610000 0.62240800 21.76930000
H 17.88640000 0.60593700 21.36370000
H 19.98560000 23.63420000 21.24060000
O 13.80800000 0.77331500 20.58840000
H 12.71190000 23.15610000 21.15890000
H 14.15850000 0.89313500 18.93520000
O 20.70320000 9.19463000 11.72360000
H 20.60950000 9.11869000 13.42540000
H 19.09310000 9.49675000 11.13990000
O 15.05410000 9.21918000 3.50083000
H 17.45500000 9.02889000 5.09363000
H 15.62210000 8.66285000 1.77061000
O 11.11980000 12.37450000 20.02490000
H 10.70190000 10.76030000 20.29110000
H 9.77123000 13.40950000 20.19270000
O 19.36450000 15.78680000 18.27080000
H 20.24430000 14.37250000 18.31080000
H 19.02640000 16.09510000 19.95700000
O 21.09310000 21.04110000 18.53860000
H 21.02850000 19.17740000 18.17590000
H 19.64510000 21.70890000 17.54150000
O 23.81180000 4.74738000 0.29796200
H 0.30999000 6.05294000 1.01887000
H 23.88990000 4.86128000 23.01990000
O 12.15420000 17.25550000 16.06380000
H 10.82260000 16.67960000 15.03360000
H 13.39150000 17.38990000 14.89040000
O 23.67020000 9.27988000 4.42378000
H 18.40730000 12.17580000 4.78306000
H 24.50228100 10.59860000 5.47249000
O 14.78390000 15.56450000 21.94080000
H 13.72520000 14.37190000 21.03170000
H 13.82320000 18.08970000 19.93230000
O 9.41497000 3.78457000 16.38030000
H 8.82050000 3.89395000 18.13090000
H 10.83460000 4.82419000 16.03550000
O 5.82474000 1.06740000 1.58261000
H 7.53594000 1.93742000 2.01844000
H 4.95249000 2.45549000 1.83318000
O 14.53030000 22.21840000 14.03320000
H 16.33180000 22.24710000 13.67670000
H 14.51710000 20.70920000 14.80870000
O 0.12109800 5.27806000 19.67070000
H 0.95775700 6.64704000 18.61060000
H 0.39539000 3.91888000 18.66020000
O 4.77337000 22.56210000 5.45915000
H 5.06277000 23.20630000 3.89688000
H 3.00346000 23.15160000 6.36103000
O 6.08142000 22.37730000 20.68000000
H 6.18352000 21.63650000 18.92160000
H 6.66118000 23.73030000 20.57680000
O 19.44530000 13.41030000 0.08049000
H 18.22640000 14.42580000 0.42909000
H 21.26960000 14.14430000 0.48755500
O 24.43010000 15.71110000 1.10330000
H 0.82789700 15.75570000 2.63640000
H 0.64517800 16.71710000 24.59010300
O 11.92180000 13.37510000 2.70660000
H 13.20210000 14.27600000 1.74163000
H 12.71230000 11.90610000 3.70092000
O 20.55680000 17.43780000 9.43972000
H 20.45440000 16.62870000 7.92611000
H 21.31910000 18.62130000 8.87253000
O 6.08185000 8.11256000 7.06257000
H 4.40437000 7.95796000 7.35814000
H 6.90006000 6.29537000 6.95880000
O 7.02431000 10.93840000 14.84660000
H 6.65797000 12.11520000 16.11940000
H 8.72004000 10.85460000 15.23460000
O 0.72102900 0.19670200 17.79190000
H 2.30606000 0.40299000 16.70790000
H 24.11180000 23.27180000 17.84210000
O 15.41630000 24.07920000 2.00246000
H 16.90950000 0.44047100 2.98799000
H 14.26610000 24.16690000 3.32284000
O 16.60790000 17.31570000 2.85985000
H 18.28400000 17.48770000 3.80879000
H 17.08600000 18.99570000 2.27316000
O 3.17688000 11.86300000 23.60510000
H 2.19444000 12.81680000 0.00809000
H 4.75812000 12.75970000 23.43640000
O 11.95970000 8.33364000 12.43410000
H 12.49310000 6.44265000 11.86820000
H 10.71210000 8.46887000 10.90090000
O 10.31060000 6.33652000 22.42940000
H 10.56960000 4.57712000 22.95480000
H 9.02640000 6.91515000 23.72640000
O 16.12490000 8.63662000 18.50830000
H 16.36180000 8.67795000 16.67650000
H 17.17190000 7.20047000 19.02170000
O 15.34470000 3.29183000 14.60570000
H 14.12820000 2.88674000 15.81070000
H 14.78930000 3.12907000 12.88360000
O 24.51680000 13.48540000 11.30690000
H 23.20360000 14.57030000 10.85070000
H 24.01990000 11.74420000 10.73040000
O 7.80593000 2.56892000 8.47829000
H 6.13027000 1.41264000 8.44615000
H 7.56962000 2.87713000 10.28620000
O 18.87890000 8.06142000 0.02779000
H 19.95230000 6.91486000 24.40764100
H 19.98980000 9.45829000 24.56099900
O 19.89650000 2.36042000 4.62615000
H 20.96270000 0.72754100 3.86337000
H 20.44090000 3.88215000 3.55697000
O 4.67666000 5.52299000 15.60240000
H 6.16667000 5.22998000 16.25110000
H 5.30931000 6.65021000 14.21980000
O 7.14829000 20.42900000 10.25500000
H 7.64518000 20.71660000 8.45782000
H 8.65294000 20.19110000 11.02180000
O 14.17790000 3.89003000 9.83429000
H 14.90290000 5.20902000 8.64066000
H 14.73300000 1.83368000 8.58504000
O 1.30007000 6.08046000 8.18956000
H 0.30631900 6.81637000 6.89896000
H 1.51017000 7.20655000 9.66467000
O 20.42250000 1.49342000 16.34130000
H 18.79470000 1.38559000 16.02150000
H 20.08110000 2.13949000 17.83300000
O 18.02050000 6.74269000 7.54520000
H 19.32090000 6.70107000 6.17289000
H 19.12580000 6.50165000 9.37395000
O 11.75420000 20.34300000 22.45480000
H 12.32360000 20.64170000 23.99720000
H 9.97109000 20.04090000 22.46360000
O 18.92380000 13.80540000 5.21506000
H 19.24770000 12.45920000 6.81610000
H 17.87930000 13.38310000 3.55024000
O 11.68110000 17.04830000 9.85578000
H 10.18830000 16.77310000 8.79138000
H 13.25980000 16.73360000 9.63823000
O 6.30144000 24.15700000 15.45910000
H 7.76621000 23.23040000 14.82080000
H 8.16783000 1.32626000 15.83690000
O 20.98150000 21.58040000 1.56034000
H 21.98060000 20.37660000 0.51496600
H 20.58760000 22.61700000 24.63829900
O 1.43539000 19.86780000 22.46110000
H 1.90406000 19.25580000 20.88180000
H 2.85626000 20.62330000 22.50450000
O 2.06695000 12.24450000 17.61600000
H 1.65134000 11.17510000 18.86760000
H 1.73177000 10.88150000 16.32180000
    
    &END COORD
  &END SUBSYS
  &DFT
    BASIS_SET_FILE_NAME  BASIS_SET
    POTENTIAL_FILE_NAME  GTH_POTENTIALS
    &QS
      EPS_DEFAULT 1.0E-10
    &END QS
    &MGRID
      NGRIDS 4
      CUTOFF 135
      REL_CUTOFF 115
    &END MGRID
    &XC
      &XC_FUNCTIONAL PADE
      &END XC_FUNCTIONAL
    &END XC
    &SCF
      SCF_GUESS ATOMIC
      EPS_SCF 1.0E-7
      MAX_SCF 300
      &DIAGONALIZATION  ON
        ALGORITHM STANDARD
      &END DIAGONALIZATION
      &MIXING  T
        METHOD BROYDEN_MIXING
        ALPHA 0.4
        NBROYDEN 8
      &END MIXING
    &END SCF
  &END DFT
  &PRINT
    &FORCES ON
    &END FORCES
  &END PRINT
&END FORCE_EVAL
