&GLOBAL
  PROJECT H2O_bulk
  RUN_TYPE ENERGY_FORCE
  PRINT_LEVEL LOW
&END GLOBAL
&FORCE_EVAL
  METHOD Quickstep
  &SUBSYS
    &KIND H
      ELEMENT   H
      BASIS_SET DZVP-GTH-PBE
      POTENTIAL GTH-PBE-q1
    &END KIND
    &KIND O
      ELEMENT   O
      BASIS_SET DZVP-GTH-PBE
      POTENTIAL GTH-PBE-q6
    &END KIND
    &CELL
      A     24.8533 0.0 0.0
      B     0.0 24.8533 0.0
      C     0.0 0.0 24.8533
    &END CELL
    &COORD

O 7.03825000 4.67318000 2.81997000
H 6.81930000 4.19232000 0.98903200
H 8.53279000 3.94186000 3.46079000
O 19.50620000 24.84072500 24.18964600
H 18.06710000 1.11840000 24.08425800
H 21.03550000 1.09503000 24.35190000
O 3.03946000 20.26510000 0.02291600
H 4.79005000 19.74220000 0.91731500
H 1.82140000 19.33490000 1.09855000
O 20.43730000 13.09220000 0.17643600
H 21.07360000 13.33490000 1.91209000
H 19.86630000 11.27130000 0.68033400
O 0.42188800 24.06550000 7.25330000
H 1.61668000 0.08791900 8.47349000
H 0.80788000 0.24245600 5.81512000
O 21.26890000 5.51798000 8.85918000
H 21.90730000 5.45276000 10.53780000
H 20.17910000 4.02093000 8.96601000
O 11.99320000 1.04351000 20.76450000
H 12.43830000 2.13051000 21.89050000
H 10.20600000 1.31980000 20.84810000
O 20.13690000 0.97388900 7.71568000
H 21.89180000 0.22994200 7.79112000
H 18.91390000 24.71367500 8.52088000
O 20.62650000 11.00120000 8.79230000
H 19.23160000 10.71410000 9.97431000
H 20.98760000 9.35986000 8.11533000
O 10.40450000 12.49050000 13.15210000
H 9.97984000 11.30810000 14.17190000
H 9.73568000 11.81010000 11.62960000
O 23.93200000 20.99210000 12.64040000
H 23.30500000 20.26310000 11.25830000
H 0.93522500 20.26230000 12.60730000
O 23.38260000 3.99830000 14.09180000
H 23.59800000 2.54536000 15.14720000
H 23.42990000 6.39615000 16.32500000
O 21.01080000 19.36820000 8.52381000
H 19.20750000 19.61980000 8.84113000
H 21.70180000 20.22760000 7.20755000
O 2.04659000 13.19230000 20.80960000
H 2.45806000 13.16850000 19.21470000
H 1.57639000 14.88620000 21.54800000
O 6.84739000 19.72880000 3.34149000
H 7.55076000 18.19840000 2.42896000
H 7.63015000 21.25990000 2.57204000
O 7.53490000 21.17920000 16.31860000
H 6.69793000 20.20120000 17.65430000
H 9.13725000 21.59050000 17.03320000
O 8.17481000 18.49750000 8.51660000
H 7.91426000 19.33510000 6.93070000
H 10.10350000 18.60090000 8.81926000
O 6.46066000 10.35880000 7.81186000
H 5.52520000 9.35960000 7.07457000
H 6.59846000 11.67480000 6.63178000
O 12.25610000 11.78240000 3.84127000
H 12.96140000 12.55390000 5.39183000
H 10.93610000 10.62630000 4.29511000
O 21.90540000 21.12670000 20.42960000
H 21.66610000 22.30610000 21.90130000
H 20.41090000 20.34040000 19.63910000
O 15.72460000 8.47666000 16.00200000
H 13.91010000 8.58767000 15.54220000
H 15.53970000 8.92479000 17.73710000
O 12.44200000 3.48606000 5.08342000
H 13.02900000 5.09853000 5.76728000
H 12.80590000 2.63072000 6.49726000
O 3.33203000 18.94000000 19.16610000
H 1.80201000 19.68570000 18.38380000
H 2.78054000 19.11170000 21.02500000
O 3.95373000 13.28760000 15.95050000
H 2.79519000 13.05560000 14.62830000
H 3.84549000 15.06080000 16.26860000
O 24.16926500 8.72212000 19.39240000
H 23.31380000 8.78416000 17.79370000
H 0.48141900 10.03220000 19.40300000
O 2.80424000 2.96005000 10.52740000
H 1.12240000 3.43960000 11.46300000
H 3.64915000 4.48240000 11.12160000
O 18.33060000 13.42460000 16.47420000
H 18.35190000 11.44950000 16.63080000
H 17.44320000 14.35190000 17.82230000
O 3.55496000 8.56060000 3.90702000
H 3.84987000 6.79450000 3.57265000
H 2.24378000 8.67171000 5.05117000
O 23.70690000 6.00803000 3.81923000
H 22.70460000 5.36401000 5.29469000
H 23.31220000 4.59040000 2.66570000
O 4.00890000 18.46750000 12.44380000
H 5.07631000 19.11990000 11.34480000
H 4.85390000 18.56320000 14.06620000
O 16.18120000 13.70710000 21.17570000
H 15.20130000 14.89560000 21.53290000
H 17.55980000 14.10340000 22.29070000
O 12.17900000 21.06050000 19.25190000
H 12.58790000 19.54160000 21.34680000
H 12.26680000 22.83260000 19.77220000
O 19.94710000 18.55740000 15.29080000
H 21.51020000 18.71840000 14.43590000
H 19.92200000 15.80240000 15.62570000
O 10.93080000 4.50669000 13.84260000
H 9.57064000 3.17168000 13.72150000
H 12.51100000 3.35372000 14.26180000
O 15.52730000 19.97620000 10.57740000
H 15.67060000 18.22270000 11.20810000
H 16.00740000 20.96600000 11.98020000
O 19.98870000 3.11707000 18.28180000
H 18.84570000 1.79222000 17.90860000
H 20.87030000 2.78447000 19.88010000
O 24.28082900 2.34690000 24.32063000
H 0.46616800 1.04360000 0.06774500
H 0.72022900 3.43322000 23.46580000
O 7.30513000 3.69608000 21.99770000
H 7.27689000 5.35633000 21.25980000
H 6.17908000 2.58338000 21.24580000
O 5.59909000 11.31930000 23.62790000
H 4.34641000 11.05750000 0.09638300
H 4.85334000 11.73330000 21.93420000
O 14.52560000 15.75630000 13.35740000
H 15.70590000 14.67100000 14.27130000
H 13.26890000 14.43930000 12.63170000
O 24.39618700 24.19115800 16.95370000
H 23.32450000 23.56100000 18.24460000
H 23.44450000 23.07870000 15.32150000
O 18.96980000 8.03754000 20.49740000
H 20.23290000 9.08429000 19.63220000
H 18.50180000 6.93521000 19.06960000
O 8.77184000 9.04367000 21.21650000
H 7.84254000 9.91741000 22.51630000
H 10.38220000 8.74671000 22.10020000
O 13.14750000 17.37190000 23.32460000
H 14.22100000 17.24800000 0.28665200
H 11.54570000 16.39070000 23.49390000
O 24.28214000 16.65630000 23.83800000
H 23.33550000 15.25550000 23.99470000
H 23.65390000 17.99490000 22.80010000
O 19.14610000 8.65083000 1.48968000
H 19.13790000 9.10129000 24.81259300
H 20.69670000 7.80051000 1.53860000
O 23.42520000 15.03070000 5.49844000
H 22.40270000 15.83470000 6.64198000
H 23.05200000 13.41940000 5.94471000
O 2.55017000 3.08047000 19.59660000
H 1.66128000 4.46687000 18.80260000
H 2.37772000 1.82111000 18.29570000
O 8.86636000 15.11090000 1.39519000
H 9.94929000 14.19230000 2.61094000
H 7.92099000 13.48590000 0.25008200
O 3.28235000 0.92537100 2.92102000
H 4.92878000 1.84312000 3.25694000
H 3.86407000 24.28767500 1.96617000
O 23.63260000 10.06690000 14.10910000
H 23.47970000 10.44540000 12.66570000
H 0.36074900 9.11322000 13.75010000
O 12.45670000 24.01482700 8.67505000
H 13.43360000 22.67870000 9.44180000
H 10.77990000 23.74413000 9.23095000
O 4.00743000 8.09996000 12.47410000
H 5.23206000 8.58984000 11.22710000
H 4.84250000 8.25998000 13.88380000
O 8.62331000 8.58594000 15.91960000
H 9.52767000 6.78487000 15.11920000
H 9.46160000 9.02678000 17.25090000
O 9.98757000 23.56990000 1.88803000
H 10.19860000 24.34871300 0.20469800
H 10.70740000 0.01103100 2.79466000
O 13.72310000 9.09274000 23.80010000
H 12.31900000 10.83460000 1.47498000
H 15.03830000 10.35090000 23.55530000
O 15.20160000 12.87530000 8.81405000
H 15.51670000 14.39560000 9.82910000
H 14.17680000 11.59930000 9.29926000
O 14.79880000 3.35508000 0.29733200
H 14.61340000 3.25759000 2.09056000
H 14.60560000 5.15877000 24.81647600
O 15.26450000 2.22065000 15.90530000
H 14.79710000 1.40951000 17.63970000
H 15.50390000 0.43908800 15.15320000
O 16.68400000 16.75270000 2.06254000
H 17.24470000 18.26220000 1.45876000
H 17.71590000 15.77450000 1.53819000
O 11.36390000 8.50832000 9.02826000
H 11.84360000 7.21093000 9.98001000
H 9.61047000 8.26603000 9.29669000
O 7.83560000 0.15099700 12.12390000
H 7.68715000 23.73880000 13.16560000
H 6.14593000 0.92328500 11.95760000
O 20.48140000 20.26840000 2.77533000
H 21.77200000 19.22030000 2.22950000
H 20.97320000 22.04070000 2.89062000
O 16.34920000 21.75640000 15.82180000
H 15.83200000 20.95110000 17.31780000
H 17.48250000 20.84250000 15.23350000
    
    &END COORD
  &END SUBSYS
  &DFT
    BASIS_SET_FILE_NAME  BASIS_SET
    POTENTIAL_FILE_NAME  GTH_POTENTIALS
    &QS
      EPS_DEFAULT 1.0E-10
    &END QS
    &MGRID
      NGRIDS 4
      CUTOFF 135
      REL_CUTOFF 115
    &END MGRID
    &XC
      &XC_FUNCTIONAL PADE
      &END XC_FUNCTIONAL
    &END XC
    &SCF
      SCF_GUESS ATOMIC
      EPS_SCF 1.0E-7
      MAX_SCF 300
      &DIAGONALIZATION  ON
        ALGORITHM STANDARD
      &END DIAGONALIZATION
      &MIXING  T
        METHOD BROYDEN_MIXING
        ALPHA 0.4
        NBROYDEN 8
      &END MIXING
    &END SCF
  &END DFT
  &PRINT
    &FORCES ON
    &END FORCES
  &END PRINT
&END FORCE_EVAL
