&GLOBAL
  PROJECT H2O_bulk
  RUN_TYPE ENERGY_FORCE
  PRINT_LEVEL LOW
&END GLOBAL
&FORCE_EVAL
  METHOD Quickstep
  &SUBSYS
    &KIND H
      ELEMENT   H
      BASIS_SET DZVP-GTH-PBE
      POTENTIAL GTH-PBE-q1
    &END KIND
    &KIND O
      ELEMENT   O
      BASIS_SET DZVP-GTH-PBE
      POTENTIAL GTH-PBE-q6
    &END KIND
    &CELL
      A     24.4019 0.0 0.0
      B     0.0 24.4019 0.0
      C     0.0 0.0 24.4019
    &END CELL
    &COORD

O 23.41460000 20.66319000 18.49800000
H 22.22930000 21.55383000 17.39280000
H 23.76450000 19.02160000 17.17980000
O 22.72020000 21.47680000 23.61650700
H 24.04300000 22.68900000 23.95901400
H 22.81280000 21.20040000 21.48738000
O 12.27980000 2.74991000 15.84230000
H 13.47990000 3.45368000 17.34780000
H 11.45340000 1.19130000 16.18460000
O 18.27358000 15.13761000 22.05420000
H 20.12699000 14.98640000 21.60362000
H 18.07528000 16.62324000 23.37265000
O 5.47818000 7.89010000 18.57380000
H 6.62687000 8.36110000 20.14510000
H 6.90833000 7.75330000 17.41970000
O 18.95064000 9.46014000 6.91290000
H 18.47614000 8.87884000 8.54307000
H 18.72786000 8.30558000 5.36729000
O 21.16860000 3.73420000 13.72890000
H 22.93770000 2.91240000 13.11500000
H 19.70100000 2.91730000 12.65190000
O 21.60186000 15.90640000 6.74983000
H 22.43616000 16.62170000 5.32338000
H 19.84427000 15.73580000 6.30549000
O 7.20200000 15.19600000 17.09480000
H 6.63070000 14.24850000 15.45170000
H 7.65280000 13.84580000 18.43560000
O 9.63252000 21.90520000 22.89030000
H 11.19160000 22.00130000 22.42180000
H 9.64952000 20.89770000 0.00480000
O 14.13380000 0.59442900 7.52952000
H 14.23910000 1.67397000 6.23404000
H 12.31550000 0.57806500 8.57501000
O 13.69140000 3.84410000 3.45510000
H 12.13410000 4.37860000 3.38810000
H 14.14930000 2.82130000 2.32540000
O 12.07830000 15.12770000 10.08430000
H 13.64170000 14.97130000 8.92450000
H 10.68280000 14.33560000 9.51220000
O 3.87280000 14.47020000 13.01090000
H 2.44200000 15.15510000 13.96030000
H 3.04290000 12.79330000 12.47810000
O 1.22665000 0.14520200 2.18618000
H 1.37208000 23.56748200 3.92283000
H 2.99581000 0.61618500 1.53187000
O 15.96100000 20.69610000 5.20240000
H 14.90060000 22.34820000 5.92050000
H 14.83670000 19.49840000 4.72560000
O 15.75530000 11.87980000 0.81610000
H 14.74100000 10.97500000 23.98010000
H 16.93280000 12.58770000 24.12080000
O 4.22290000 15.64540000 3.77440000
H 3.92430000 16.35310000 5.76360000
H 3.59110000 14.06110000 3.48360000
O 19.74280000 21.92570000 14.28810000
H 19.35950000 23.47540000 13.74000000
H 18.33620000 21.03870000 15.33510000
O 8.58520000 4.54370000 4.12776000
H 7.81430000 4.04760000 5.67916000
H 7.72730000 3.82010000 2.57914000
O 4.81110000 18.20210000 8.60280000
H 6.82000000 18.70400000 8.89390000
H 4.63790000 17.14020000 10.45270000
O 8.61300000 6.24282000 14.77950000
H 9.68680000 7.23419000 13.68010000
H 9.83150000 5.28308000 15.74520000
O 6.54478000 1.88737000 0.20287000
H 5.77775000 2.82863000 23.36334000
H 7.18741000 0.42568600 24.02525500
O 20.80540000 3.33060000 2.51170000
H 20.16370000 5.00049000 3.03320000
H 22.12570000 2.37212000 3.85820000
O 23.26744000 11.09500000 7.10300000
H 21.84081000 10.39830000 7.21770000
H 23.07369000 12.93860000 6.92570000
O 11.27100000 8.62580000 11.29310000
H 9.90254000 9.74770000 10.71450000
H 13.12940000 9.42370000 11.51650000
O 6.81930000 20.08550000 18.54470000
H 6.82900000 18.07300000 18.59260000
H 7.84290000 20.78810000 19.72800000
O 7.78010000 10.03240000 3.25240000
H 8.57390000 8.03700000 3.05030000
H 6.15070000 9.90880000 3.00790000
O 13.40660000 10.48510000 20.33890000
H 15.24210000 11.04380000 19.45760000
H 13.42160000 8.73250000 20.07760000
O 3.42016000 23.33220000 16.86890000
H 1.68181000 22.36300000 17.17280000
H 4.55269000 21.67620000 16.95590000
O 24.21598700 17.94850000 2.53425000
H 1.43154000 17.12110000 2.62190000
H 23.70563500 19.14400000 0.96607800
O 1.42462000 1.33940000 12.82200000
H 1.37448000 0.45897100 11.18850000
H 2.30865000 0.01447200 14.06150000
O 14.68670000 4.39750000 19.93420000
H 16.14130000 5.07770000 19.43250000
H 14.99710000 3.50930000 21.23930000
O 5.53358000 2.35200000 7.98390000
H 4.76655000 3.51780000 9.45430000
H 4.10461000 1.02350000 8.26400000
O 13.18440000 16.02640000 3.14747000
H 14.22400000 15.17050000 1.66948000
H 11.65720000 16.89930000 2.77332000
O 18.16830000 11.27780000 17.86090000
H 17.26560000 11.81100000 16.35130000
H 18.74180000 9.52980000 17.83700000
O 7.70780000 11.92180000 8.78472000
H 7.65070000 12.27180000 7.03174000
H 6.13710000 11.64680000 9.16684000
O 3.38640000 2.95066000 20.56020000
H 3.19800000 1.76295000 18.97300000
H 3.94630000 4.55131000 20.09070000
O 2.59540000 10.24790000 10.94500000
H 3.34480000 8.50440000 11.04120000
H 1.45210000 10.38360000 9.58480000
O 16.73140000 14.56150000 6.37590000
H 17.22840000 12.86620000 5.78410000
H 15.64080000 15.23370000 5.37430000
O 2.31280000 22.38078000 8.54630000
H 2.99850000 20.71030000 8.81230000
H 0.60560000 22.12598000 8.05610000
O 17.66670000 7.58401000 11.52640000
H 17.12140000 5.68371000 11.14940000
H 19.07850000 7.03200000 12.38840000
O 16.67239000 18.31220000 17.34584000
H 17.72094000 17.22690000 18.80950000
H 15.24470000 17.49810000 16.69116000
O 4.46490000 5.58240000 11.77400000
H 6.13270000 5.55640000 12.83590000
H 3.39060000 4.14910000 12.35320000
O 9.68203000 0.35132200 10.13530000
H 9.47609000 23.91424600 11.85580000
H 8.07229000 1.18777000 9.77227000
O 14.60050000 21.37080000 21.55540000
H 14.79230000 20.39314000 20.07860000
H 15.76510000 20.78423000 22.75460000
O 12.42410000 17.27053000 14.90407000
H 10.95430000 16.69310000 16.23174000
H 12.73010000 16.21894000 13.42980000
O 20.89970000 17.03170000 11.75500000
H 20.70100000 18.79710000 12.13600000
H 21.53380000 16.79340000 10.04570000
O 10.30680000 22.41910000 14.84774000
H 8.81235000 21.74190000 15.58213000
H 10.99500000 20.89720000 14.29400000
O 21.97480000 22.18960000 5.67150000
H 20.83410000 21.27340000 6.82440000
H 22.08090000 21.24680000 4.15000000
O 17.83308000 7.01183000 2.62188000
H 16.89847000 8.63507000 2.09833000
H 16.48843000 5.76680000 3.28779000
O 16.01340000 2.45100000 12.47610000
H 15.47560000 1.74220000 10.92330000
H 14.88790000 2.67810000 13.91310000
O 0.19606700 16.66630000 15.52740000
H 24.23948000 15.59070000 17.20860000
H 23.21442000 16.58280000 14.54090000
O 17.85280000 19.68270000 0.42568900
H 19.13250000 20.82410000 0.10586900
H 17.38500000 19.49320000 2.16888000
O 22.97490000 13.85580000 19.56330000
H 24.19590000 12.40880000 20.54130000
H 21.35660000 13.09010000 18.71520000
O 8.36860000 18.75430000 2.33388000
H 7.03770000 17.42740000 2.24998000
H 8.26370000 19.60140000 4.00920000
O 9.57639000 19.18420000 7.96130000
H 10.94240000 18.17180000 8.97400000
H 9.47603000 20.96630000 8.53490000
O 2.19738000 11.11270000 3.05227000
H 0.96504500 10.60590000 4.33941000
H 1.44494000 10.67600000 1.64007000
O 17.45339000 12.99170000 12.84040000
H 18.27057000 11.83960000 11.43540000
H 18.63628000 14.41860000 12.37020000
O 19.51650000 6.06517000 18.47330000
H 21.05338000 5.65552000 19.58300000
H 19.95288000 5.36372000 16.76800000
O 1.07560000 10.19630000 21.56709000
H 0.47340000 8.53830000 22.43068000
H 2.51430000 9.70020000 20.58342000
O 23.20880000 5.75171000 22.67100000
H 22.74670000 5.28536000 24.29570000
H 24.27540000 4.49731000 21.94790000
O 16.70820000 1.51560000 24.27900000
H 18.39750000 2.03300000 0.55060000
H 16.85980000 24.17960000 23.80590000
O 7.98480000 10.49870000 22.52240000
H 9.90830000 10.88130000 22.35520000
H 7.78060000 10.56940000 0.21220000
    
    &END COORD
  &END SUBSYS
  &DFT
    BASIS_SET_FILE_NAME  BASIS_SET
    POTENTIAL_FILE_NAME  GTH_POTENTIALS
    &QS
      EPS_DEFAULT 1.0E-10
    &END QS
    &MGRID
      NGRIDS 4
      CUTOFF 135
      REL_CUTOFF 115
    &END MGRID
    &XC
      &XC_FUNCTIONAL PADE
      &END XC_FUNCTIONAL
    &END XC
    &SCF
      SCF_GUESS ATOMIC
      EPS_SCF 1.0E-7
      MAX_SCF 300
      &DIAGONALIZATION  ON
        ALGORITHM STANDARD
      &END DIAGONALIZATION
      &MIXING  T
        METHOD BROYDEN_MIXING
        ALPHA 0.4
        NBROYDEN 8
      &END MIXING
    &END SCF
  &END DFT
  &PRINT
    &FORCES ON
    &END FORCES
  &END PRINT
&END FORCE_EVAL
