&GLOBAL
  PROJECT H2O_bulk
  RUN_TYPE ENERGY_FORCE
  PRINT_LEVEL LOW
&END GLOBAL
&FORCE_EVAL
  METHOD Quickstep
  &SUBSYS
    &KIND H
      ELEMENT   H
      BASIS_SET DZVP-GTH-PBE
      POTENTIAL GTH-PBE-q1
    &END KIND
    &KIND O
      ELEMENT   O
      BASIS_SET DZVP-GTH-PBE
      POTENTIAL GTH-PBE-q6
    &END KIND
    &CELL
      A     25.91322 0.0 0.0
      B     0.0 25.91322 0.0
      C     0.0 0.0 25.91322
    &END CELL
    &COORD

O 3.68219000 5.76123000 17.80190000
H 2.45468000 5.70882000 16.48310000
H 3.04838000 5.01323000 19.32530000
O 2.15203000 6.65831000 5.65964000
H 1.08883000 7.65157000 6.75635000
H 0.98922200 5.77984000 4.55807000
O 1.17012000 19.20350000 21.13520000
H 0.23402800 18.07020000 20.21640000
H 2.12259000 20.23870000 19.92990000
O 16.49490000 14.42520000 17.87060000
H 17.52200000 14.12270000 16.35470000
H 15.93770000 16.15520000 17.69560000
O 12.34960000 24.68250000 24.33160000
H 11.56090000 0.09138000 23.35050000
H 14.02070000 25.27780000 24.78100000
O 1.65688000 23.70540000 9.32754000
H 2.73713000 22.76150000 8.21099000
H 2.51764000 25.27270000 9.60769000
O 17.94890000 23.11110000 2.59421000
H 17.22770000 16.54760000 1.85270000
H 19.24190000 23.81870000 3.66667000
O 8.39036000 4.42827000 12.07590000
H 9.27088000 3.18774000 10.94430000
H 8.85276000 3.96638000 13.94650000
O 20.89810000 18.73120000 12.59780000
H 22.10280000 17.55640000 13.22810000
H 21.44150000 19.32370000 10.96770000
O 13.54650000 23.54020000 5.38324000
H 15.08140000 23.75680000 4.16681000
H 12.48400000 22.25470000 4.62564000
O 18.66910000 8.16215000 19.48750000
H 19.88390000 7.13649000 18.62980000
H 17.45390000 7.06476000 20.25820000
O 22.74960000 24.57680000 7.09805000
H 24.40450000 24.37690000 7.86466000
H 23.00800000 24.98320000 5.35795000
O 19.04000000 3.04921000 8.04282000
H 18.10900000 1.70098000 8.89628000
H 20.47710000 2.09444000 7.51754000
O 9.39393000 5.28459000 16.63320000
H 10.21900000 6.89593000 16.75650000
H 7.88767000 5.39774000 17.64180000
O 1.45051000 12.04280000 19.52130000
H 1.73545000 10.59680000 20.59330000
H 3.00398000 12.26150000 18.59760000
O 11.21250000 12.38270000 3.72078000
H 11.11030000 11.06230000 2.49863000
H 9.53652000 12.53810000 4.41692000
O 20.72900000 25.88432400 23.67780000
H 19.53520000 0.09207000 22.29990000
H 19.78090000 25.15299100 25.06240000
O 4.07793000 16.26270000 25.49110000
H 2.57298000 15.41830000 25.01460000
H 4.49316000 17.37710000 24.11350000
O 24.32910000 12.76050000 1.35307000
H 25.10820000 13.07020000 2.95832000
H 22.58780000 12.29860000 1.64126000
O 0.10741300 0.96885000 3.03714000
H 0.60575300 25.87823900 1.57005000
H 1.28355000 0.70126300 4.39063000
O 5.39444000 20.88770000 5.97534000
H 5.78790000 22.69910000 5.84764000
H 6.14454000 20.18030000 4.48444000
O 21.04590000 19.53100000 6.82753000
H 20.78090000 21.32630000 6.95388000
H 22.80960000 19.35380000 6.49901000
O 23.69100000 14.61310000 22.47680000
H 24.92810000 13.93230000 21.31200000
H 24.31940000 14.21790000 24.15260000
O 0.45178000 24.57770000 24.00500000
H 24.63350000 25.05100000 23.67210000
H 0.49528000 22.75500000 24.07790000
O 16.00710000 0.24245000 12.65200000
H 17.73730000 0.28763400 13.29440000
H 15.29400000 24.55782000 13.21740000
O 8.57984000 14.96990000 11.42990000
H 10.73390000 7.76429000 8.54928000
H 9.19607000 15.89570000 12.86110000
O 9.32639000 3.39280000 23.80720000
H 8.58986000 2.97162000 25.42830000
H 9.52985000 5.36920000 24.04540000
O 10.18230000 8.64122000 10.09990000
H 9.11257000 6.37753000 11.33660000
H 8.76050000 9.78565000 9.63862000
O 24.58290000 4.74913000 14.06590000
H 24.00950000 6.39566000 14.62140000
H 25.01130000 4.93265000 12.31030000
O 23.60050000 8.22072000 8.85977000
H 23.57510000 10.05670000 8.98488000
H 21.83690000 7.72934000 8.76494000
O 3.51174000 20.54360000 15.91010000
H 4.02427000 22.03170000 15.01130000
H 4.38244000 19.20690000 15.06450000
O 16.76200000 11.62890000 23.61630000
H 15.90070000 12.81260000 22.62170000
H 18.12770000 10.91730000 22.62580000
O 8.05303000 20.31580000 25.28240000
H 8.45408000 21.88020000 24.45590000
H 9.62172000 19.57950000 25.87200000
O 19.06710000 11.53210000 2.68563000
H 18.80610000 13.15520000 3.47018000
H 18.10420000 11.53870000 1.12996000
O 7.49784000 8.62477000 5.72768000
H 8.80765000 7.82767000 4.77734000
H 5.86622000 7.88336000 5.37678000
O 3.58023000 13.41360000 4.09838000
H 5.01234000 12.52690000 4.72544000
H 4.13031000 14.84070000 3.09074000
O 21.07150000 0.50319100 14.26680000
H 21.98140000 24.85642000 14.07240000
H 22.35760000 1.79103000 14.18650000
O 11.26010000 8.65205000 25.08600000
H 9.77383000 9.57959000 24.52300000
H 12.69440000 9.13261000 24.09950000
O 4.14548000 3.23971000 9.23498000
H 4.87055000 4.38998000 10.43370000
H 3.50148000 4.26059000 7.84782000
O 24.84650000 22.74630000 13.86930000
H 25.39610000 21.63710000 15.18820000
H 25.71710000 22.37260000 12.32470000
O 23.19710000 9.43947000 16.99650000
H 24.61520000 10.60310000 17.19210000
H 21.71900000 10.44450000 17.21010000
O 12.19950000 0.86249400 18.29880000
H 11.30640000 0.93497100 19.87130000
H 11.57850000 2.36347000 17.49760000
O 17.00970000 19.80050000 16.67290000
H 15.68160000 20.90120000 16.06890000
H 18.12120000 19.59410000 15.25440000
O 18.38730000 12.82970000 13.10020000
H 17.32490000 12.04240000 11.90480000
H 19.15700000 14.52430000 12.91550000
O 13.33770000 10.03840000 16.56690000
H 14.60510000 8.79920000 16.87990000
H 14.20430000 11.60830000 17.01290000
O 12.29120000 17.57110000 2.86923000
H 11.90550000 15.73750000 3.20923000
H 14.07630000 17.92520000 2.90371000
O 18.80890000 17.01110000 2.42578000
H 20.33320000 18.53910000 0.04424600
H 17.96220000 17.77480000 3.76588000
O 24.11220000 5.69308000 1.76744000
H 22.53700000 5.77783000 0.91243000
H 24.43270000 3.91557000 2.03629000
O 1.99251000 8.41872000 23.81620000
H 0.75236100 8.32841000 25.14690000
H 2.73371000 6.77388000 23.83870000
O 16.80960000 20.73180000 22.14020000
H 15.14000000 21.38210000 22.40300000
H 17.07280000 20.80420000 20.33270000
O 10.03960000 1.93237000 3.04913000
H 11.04050000 0.51995500 2.50680000
H 10.76240000 2.16194000 4.69426000
O 3.60556000 2.84602000 22.46400000
H 2.61272000 1.44645000 23.08850000
H 5.00151000 2.13833000 21.53180000
O 11.65650000 1.09777000 9.14424000
H 11.99560000 25.76060600 7.80811000
H 12.72830000 0.62480900 10.51910000
O 17.91060000 1.34468000 19.30470000
H 16.24460000 1.50946000 18.58380000
H 19.09810000 1.66062000 17.95390000
O 21.33400000 18.55100000 24.82750000
H 22.03050000 17.14310000 23.60440000
H 20.67290000 20.04130000 24.19910000
O 12.53720000 6.40191000 4.36183000
H 12.51970000 5.76330000 2.67192000
H 14.19180000 7.06582000 4.67261000
O 17.88240000 8.32826000 6.60107000
H 18.62700000 9.43484000 5.35048000
H 18.51490000 6.66391000 6.35314000
O 5.66483000 25.84058800 5.65468000
H 5.84767000 0.70587700 7.26971000
H 7.04151000 0.47133800 4.56597000
O 8.13523000 22.62900000 11.70620000
H 9.84397000 22.35450000 11.19090000
H 7.25037000 21.28810000 10.85340000
O 8.45563000 12.90290000 17.05560000
H 8.39558000 13.52650000 15.31330000
H 10.11180000 12.20940000 17.30880000
O 0.37018500 18.41550000 7.26627000
H 2.12808000 18.61730000 6.82905000
H 0.33602200 16.84890000 8.13245000
O 12.84250000 22.39350000 15.06630000
H 11.60830000 21.10330000 14.83620000
H 12.24120000 23.69820000 16.19580000
O 15.51010000 10.76870000 10.65040000
H 16.12560000 9.69428000 9.21309000
H 13.72910000 10.72350000 10.59270000
O 6.80928000 10.84380000 23.96920000
H 5.45772000 10.84240000 25.15470000
H 5.79995000 10.82410000 22.48290000
    
    &END COORD
  &END SUBSYS
  &DFT
    BASIS_SET_FILE_NAME  BASIS_SET
    POTENTIAL_FILE_NAME  GTH_POTENTIALS
    &QS
      EPS_DEFAULT 1.0E-10
    &END QS
    &MGRID
      NGRIDS 4
      CUTOFF 135
      REL_CUTOFF 115
    &END MGRID
    &XC
      &XC_FUNCTIONAL PADE
      &END XC_FUNCTIONAL
    &END XC
    &SCF
      SCF_GUESS ATOMIC
      EPS_SCF 1.0E-7
      MAX_SCF 300
      &DIAGONALIZATION  ON
        ALGORITHM STANDARD
      &END DIAGONALIZATION
      &MIXING  T
        METHOD BROYDEN_MIXING
        ALPHA 0.4
        NBROYDEN 8
      &END MIXING
    &END SCF
  &END DFT
  &PRINT
    &FORCES ON
    &END FORCES
  &END PRINT
&END FORCE_EVAL
