&GLOBAL
  PROJECT H2O_bulk
  RUN_TYPE ENERGY_FORCE
  PRINT_LEVEL LOW
&END GLOBAL
&FORCE_EVAL
  METHOD Quickstep
  &SUBSYS
    &KIND H
      ELEMENT   H
      BASIS_SET DZVP-GTH-PBE
      POTENTIAL GTH-PBE-q1
    &END KIND
    &KIND O
      ELEMENT   O
      BASIS_SET DZVP-GTH-PBE
      POTENTIAL GTH-PBE-q6
    &END KIND
    &CELL
      A     23.2006 0.0 0.0
      B     0.0 23.2006 0.0
      C     0.0 0.0 23.2006
    &END CELL
    &COORD

O 11.63180000 20.37080000 2.98280000
H 12.09680000 20.27850000 1.23951000
H 11.25380000 18.65860000 3.49301000
O 13.08100000 21.53910000 7.84226000
H 13.06620000 23.18730000 7.05898000
H 12.96070000 20.36520000 6.47579000
O 4.05391000 23.12880000 1.25278000
H 2.36789000 0.22990000 0.61724000
H 3.85038000 23.03590000 3.08368000
O 8.72398000 1.21244000 1.65553000
H 9.32789000 22.73915100 2.15046000
H 6.92531000 0.95106000 1.26224000
O 19.00430000 12.16530000 18.43920000
H 17.91110000 11.21630000 19.53740000
H 18.42430000 13.89010000 18.52810000
O 20.26310000 19.52900000 6.60122000
H 19.35470000 19.47750000 5.02477000
H 20.89190000 21.24060000 6.80778000
O 14.51060000 14.94050000 3.56824000
H 12.28380000 11.46670000 2.25444000
H 14.47750000 14.27760000 5.27034000
O 12.96880000 9.73317000 2.57119000
H 14.37710000 9.53355000 4.07824000
H 11.72760000 8.33949000 2.36010000
O 22.47780000 17.04610000 17.56230000
H 21.88980000 0.33450000 21.20350000
H 1.06950000 17.04720000 17.89230000
O 10.95960000 5.47705000 0.83363000
H 12.74670000 5.05484000 1.16409000
H 10.06420000 4.08366000 1.70559000
O 18.28470000 6.63065000 13.56990000
H 17.71500000 6.45359000 15.30040000
H 17.96720000 5.05705000 12.70130000
O 17.15840000 1.83101000 11.05790000
H 16.07140000 0.69882500 11.98750000
H 16.97690000 1.23173000 9.35164000
O 4.14505000 21.66060000 6.10477000
H 4.10280000 19.95630000 6.83055000
H 5.06561000 22.71580000 7.28930000
O 0.31790000 14.82750000 6.37447000
H 22.49970000 16.28910000 5.94913000
H 23.18530000 13.54010000 5.06821000
O 12.92930000 3.04769000 18.06320000
H 13.88730000 4.65613000 18.20290000
H 11.26590000 3.58709000 18.46780000
O 5.24849000 7.78661000 4.23399000
H 4.51181000 8.16391000 2.59124000
H 5.07504000 9.35282000 5.13224000
O 17.45560000 22.47000000 0.43036000
H 16.05590000 22.32650000 22.34048200
H 17.83190000 20.69130000 1.15131000
O 22.13240000 1.60192000 22.58301500
H 19.03850000 0.18111700 23.05047900
H 9.84024000 17.75670000 7.44114000
O 15.70250000 4.02577000 2.28003000
H 17.31600000 4.70961000 2.85292000
H 16.12940000 2.51377000 1.38681000
O 5.82070000 1.14897000 9.85896000
H 5.40577000 2.68336000 10.74800000
H 6.28210000 23.11242900 11.08010000
O 0.11777000 5.86676000 5.31749000
H 22.85639300 6.22050000 7.05381000
H 1.44033000 6.97870000 4.75777000
O 22.88994200 1.05787000 6.21265000
H 0.16057600 2.74566000 5.40703000
H 1.29677000 0.19644100 6.30877000
O 6.42048000 17.19650000 0.85578500
H 5.98259000 17.99360000 2.41612000
H 5.20526000 17.62510000 22.72225500
O 22.42130000 9.66563000 15.27050000
H 21.72670000 10.89080000 16.44290000
H 20.94830000 9.03006000 14.41300000
O 21.78290000 12.25240000 2.59927000
H 20.44000000 11.02870000 2.60918000
H 22.94810000 11.67790000 1.28780000
O 15.04700000 15.62430000 17.78930000
H 14.07660000 17.11020000 17.43150000
H 14.38040000 14.92280000 19.31690000
O 13.67550000 20.89330000 12.87660000
H 13.53700000 20.25340000 11.17550000
H 11.99350000 21.46680000 13.33320000
O 4.31180000 16.96050000 7.80159000
H 5.79704000 15.96990000 8.08533000
H 2.86389000 15.84830000 7.40117000
O 6.65638000 16.33280000 12.38330000
H 5.02691000 16.42460000 11.60530000
H 6.32184000 15.76600000 14.14380000
O 9.67277000 9.69436000 19.19910000
H 8.03556000 4.74911000 18.50880000
H 8.89769000 9.71096000 20.84390000
O 19.99780000 7.28265000 1.20991000
H 19.85850000 7.43251000 3.02132000
H 21.71920000 6.70817000 0.86646300
O 5.80115000 9.68259000 9.21279000
H 4.44783000 10.80780000 9.67668000
H 7.21463000 10.29810000 10.19800000
O 8.74726000 1.78833000 14.48270000
H 8.69683000 23.08246400 14.71500000
H 10.36510000 2.23772000 15.18740000
O 5.00439000 5.65047000 16.16180000
H 6.78589000 5.21362000 16.04710000
H 4.58079000 5.72060000 14.35960000
O 13.55370000 21.66550000 20.65930000
H 13.08140000 0.05890000 19.82720000
H 14.78130000 21.04450000 19.28260000
O 0.02577600 4.89206000 16.80190000
H 1.81964000 4.70185000 16.51890000
H 23.00020400 6.70760000 16.54160000
O 10.28850000 17.75880000 20.47000000
H 9.76935000 16.93380000 22.05190000
H 11.38690000 19.33070000 20.64870000
O 16.11100000 9.19088000 21.82450000
H 14.58900000 9.12423000 22.78910000
H 17.28100000 7.99877000 22.60930000
O 0.58850000 16.62180000 12.91220000
H 23.05440000 17.45420000 14.44890000
H 1.39480000 17.80500000 11.81430000
O 16.30090000 20.48750000 17.06000000
H 15.17870000 20.52770000 15.59490000
H 17.98450000 20.87810000 16.44840000
O 20.69040000 21.03370000 11.60580000
H 19.72520000 22.58420000 11.49650000
H 19.73390000 19.92860000 10.50670000
O 12.46560000 14.35570000 8.59867000
H 11.82760000 16.04230000 8.88904000
H 11.70870000 13.28500000 9.89615000
O 8.45984000 4.09540000 20.18450000
H 9.72985000 5.02914000 21.38590000
H 7.06006000 3.02072000 20.80460000
O 2.80120000 12.42290000 13.30330000
H 1.88133000 14.11620000 13.26720000
H 1.49690000 11.18690000 13.80990000
O 21.95180000 7.09515000 10.42440000
H 21.73030000 8.94133000 10.20150000
H 20.75840000 6.67037000 11.76290000
O 16.42260000 8.23007000 6.11537000
H 11.51260000 4.37861000 10.53390000
H 17.72050000 7.84623000 7.35255000
O 4.80496000 0.80340100 19.00740000
H 3.61710000 0.90960800 20.38240000
H 4.61993000 2.11205000 17.74220000
O 1.67833000 5.92833000 22.14290000
H 22.68704500 3.84092000 22.35570000
H 1.18443000 5.51141000 20.44370000
O 10.50600000 10.94980000 11.62740000
H 10.82400000 11.87970000 13.22780000
H 12.04230000 9.97953000 11.59850000
O 10.34010000 5.53355000 11.47120000
H 9.19662000 4.41487000 12.64430000
H 9.23361000 6.27179000 10.19650000
O 13.66300000 3.71267000 7.49894000
H 12.25690000 4.59259000 6.45011000
H 15.17390000 4.79469000 7.10261000
O 9.23823000 4.73004000 6.28691000
H 8.58079000 6.21028000 5.45581000
H 8.73555000 3.21405000 5.38887000
O 20.66730000 0.30816100 16.15190000
H 21.54360000 1.80652000 16.71340000
H 21.74070000 22.70613000 14.92630000
O 21.41850000 11.92360000 9.91121000
H 20.15000000 13.03660000 10.54490000
H 22.56680000 13.06180000 9.05337000
O 5.65467000 13.97030000 16.55640000
H 7.10617000 12.98130000 17.06800000
H 4.28989000 12.89150000 15.00620000
O 15.32340000 7.32626000 17.56180000
H 14.69030000 8.32867000 16.18720000
H 15.27490000 8.38189000 19.11330000
O 8.98239000 12.92110000 5.13227000
H 10.52180000 13.80540000 4.68511000
H 9.14210000 12.64370000 6.90520000
O 2.81064000 10.34580000 0.41290000
H 4.17934000 11.27220000 22.82950000
H 2.46904000 8.73588000 22.66870000
O 12.85850000 12.03590000 15.54430000
H 12.26970000 11.16060000 17.05180000
H 13.54710000 13.65630000 16.12310000
O 9.52214000 19.81550000 15.56590000
H 8.79096000 18.21000000 19.42530000
H 9.91647000 18.42260000 14.43690000
O 7.27356000 12.50670000 0.73895000
H 6.66574000 14.23700000 1.25630000
H 7.11813000 11.60230000 2.30341000
O 18.21230000 17.81970000 1.93425000
H 16.95290000 16.54030000 2.72487000
H 19.64940000 16.86700000 1.34354000
O 3.31078000 5.36555000 11.10630000
H 3.94419000 6.38166000 9.73583000
H 1.47856000 5.78057000 11.07530000
O 4.30995000 17.97720000 19.58370000
H 4.72242000 16.35030000 18.74490000
H 4.85959000 19.22970000 18.38320000
    
    &END COORD
  &END SUBSYS
  &DFT
    BASIS_SET_FILE_NAME  BASIS_SET
    POTENTIAL_FILE_NAME  GTH_POTENTIALS
    &QS
      EPS_DEFAULT 1.0E-10
    &END QS
    &MGRID
      NGRIDS 4
      CUTOFF 135
      REL_CUTOFF 115
    &END MGRID
    &XC
      &XC_FUNCTIONAL PADE
      &END XC_FUNCTIONAL
    &END XC
    &SCF
      SCF_GUESS ATOMIC
      EPS_SCF 1.0E-7
      MAX_SCF 300
      &DIAGONALIZATION  ON
        ALGORITHM STANDARD
      &END DIAGONALIZATION
      &MIXING  T
        METHOD BROYDEN_MIXING
        ALPHA 0.4
        NBROYDEN 8
      &END MIXING
    &END SCF
  &END DFT
  &PRINT
    &FORCES ON
    &END FORCES
  &END PRINT
&END FORCE_EVAL
