&GLOBAL
  PROJECT H2O_bulk
  RUN_TYPE ENERGY_FORCE
  PRINT_LEVEL LOW
&END GLOBAL
&FORCE_EVAL
  METHOD Quickstep
  &SUBSYS
    &KIND H
      ELEMENT   H
      BASIS_SET DZVP-GTH-PBE
      POTENTIAL GTH-PBE-q1
    &END KIND
    &KIND O
      ELEMENT   O
      BASIS_SET DZVP-GTH-PBE
      POTENTIAL GTH-PBE-q6
    &END KIND
    &CELL
      A     24.49849 0.0 0.0
      B     0.0 24.49849 0.0
      C     0.0 0.0 24.49849
    &END CELL
    &COORD

O 22.64250000 20.65606000 19.07228000
H 20.99110000 20.97287000 17.60408000
H 23.64190000 19.25696000 18.39508000
O 0.64842000 0.32872000 20.91353000
H 1.70572000 0.74142000 19.38490000
H 24.21841000 23.52171000 19.97185000
O 12.93820000 1.82392000 17.37930000
H 13.17490000 2.62086000 18.90620000
H 13.35130000 24.39043700 17.84230000
O 18.96392000 15.18120000 21.08516000
H 20.29406000 13.94989000 20.76291000
H 19.34425000 16.74455000 21.94175000
O 4.69935000 7.94101000 18.90750000
H 5.80275000 9.34531000 19.19950000
H 4.22021000 8.43771000 17.23170000
O 18.95348000 10.40990000 7.24263000
H 18.53184000 11.82740000 8.32292000
H 18.18015000 10.45340000 5.67025000
O 19.98101000 4.75841000 14.59470000
H 21.39451000 4.19431000 14.36900000
H 18.47881000 3.63701000 14.49950000
O 0.98266300 17.33278000 8.17078000
H 2.62250000 17.62268000 9.02808000
H 0.55390500 19.08988000 7.46087000
O 8.28001000 14.52698000 17.55580000
H 6.67671000 14.67958000 16.21740000
H 8.17551000 13.39968000 18.77210000
O 10.16600000 21.36778000 23.68728000
H 11.98330000 20.82808000 23.11508000
H 9.57813000 20.54588000 0.60079000
O 14.09909000 1.20698000 8.97832000
H 14.71254000 2.96072000 8.83038000
H 12.40909000 1.15126000 8.15729000
O 13.31369000 5.05191000 4.65202000
H 11.62109000 5.28001000 5.21042000
H 13.26919000 3.44941000 3.50522000
O 12.19000000 14.80228000 8.28039000
H 12.58820000 14.58458000 6.40239000
H 10.66990000 13.80808000 8.57539000
O 3.87741000 14.40070000 14.35251000
H 2.10131000 14.87990000 15.15761000
H 3.48771000 13.00340000 12.90621000
O 23.60365400 1.22387000 4.32553000
H 23.72425100 24.49598700 2.77461000
H 0.82321600 1.66128000 4.97578000
O 17.43918000 21.62790000 8.46671000
H 16.01638000 22.54710000 8.38601000
H 16.81428000 20.53400000 7.12831000
O 14.91498000 12.62010000 23.75140000
H 14.08648000 12.29630000 22.12020000
H 16.24858000 13.70740000 23.04960000
O 2.82309000 17.23882000 2.86229000
H 2.16209000 17.25832000 4.32479000
H 2.79179000 15.64702000 1.94209000
O 19.19542000 21.12410000 14.61081000
H 18.26002000 22.69110000 14.64081000
H 18.19862000 19.77480000 15.00921000
O 7.34482000 5.30759000 3.99865000
H 6.66302000 4.53309000 5.23023000
H 6.94452000 4.60109000 2.28983000
O 4.75331000 18.40810000 11.00579000
H 6.57321000 18.33190000 10.25499000
H 4.71541000 17.02840000 12.42839000
O 9.24159000 3.56044000 12.62652000
H 10.30979000 4.84346000 12.08212000
H 10.50449000 3.41731000 13.82992000
O 8.07452000 1.90458000 23.97650900
H 7.73330000 2.19251000 21.96106000
H 8.99925000 0.09060700 24.19738400
O 19.80951000 4.19432000 2.08071000
H 18.49311000 5.82372000 2.50621000
H 20.88011000 3.88803000 3.43231000
O 24.34799100 12.68552000 6.47431000
H 22.28617000 12.25692000 7.64791000
H 0.63306300 14.16442000 7.13771000
O 12.33620000 7.36491000 10.49830000
H 10.97700000 8.35501000 9.72491000
H 13.81720000 7.10321000 9.49325000
O 8.75769000 19.55060000 18.86580000
H 7.96819000 18.13160000 18.38070000
H 8.35159000 20.35180000 20.63640000
O 7.81031000 10.97381000 3.12142000
H 7.96201000 8.75781000 3.02342000
H 6.11121000 11.56751000 3.22032000
O 12.42100000 9.38271000 20.07900000
H 12.88480000 9.20741000 18.33580000
H 13.71930000 7.83651000 20.79180000
O 7.21613000 23.26408000 15.24120000
H 6.69934000 22.43168000 13.83830000
H 7.92289000 21.90088000 16.04600000
O 0.54825700 22.09850000 0.90798500
H 1.19944000 20.38510000 1.45856000
H 1.28475000 23.13600000 23.85806900
O 0.38501800 2.94479000 14.17790000
H 0.34933800 1.44937000 13.07070000
H 1.76786000 2.71143000 15.86350000
O 14.68288000 4.80512000 21.27678000
H 16.55388000 5.04412000 20.57918000
H 15.27278000 3.95372000 22.67888000
O 3.80208000 2.72492000 8.41809000
H 3.95574000 4.23512000 9.59589000
H 2.82950000 1.38722000 9.31949000
O 12.39028000 15.44321000 2.74557000
H 12.76318000 14.28491000 1.18938000
H 10.66918000 16.10351000 2.67204000
O 14.57190000 7.53791000 15.42580000
H 13.56700000 7.38691000 14.11460000
H 16.51470000 7.40881000 15.14080000
O 8.38229000 11.21819000 8.64202000
H 8.19849000 10.96669000 6.82947000
H 6.84879000 11.53869000 9.27598000
O 4.06538000 2.13794000 17.38730000
H 5.31698000 0.76780500 16.89290000
H 5.37088000 3.84280000 17.85220000
O 3.46499000 11.18789000 10.54861000
H 3.79069000 9.64469000 11.30051000
H 1.73599000 11.42739000 9.40511000
O 17.08730000 17.39500000 4.93571000
H 16.97100000 15.92410000 6.07761000
H 15.70830000 17.11710000 3.77951000
O 1.06399000 23.57739600 11.11871000
H 1.97449000 22.17646000 11.74291000
H 24.29848000 22.99298000 10.03451000
O 17.33621000 5.68889000 8.98351000
H 18.09361000 5.13616000 10.38861000
H 18.16531000 7.29249000 8.33581000
O 16.53015000 17.02098000 16.84103000
H 17.52756000 16.39178000 18.29519000
H 15.23287000 16.04948000 16.01864000
O 3.92272000 6.23939000 12.69529000
H 5.31782000 5.70089000 13.19749000
H 2.34552000 5.32059000 13.24959000
O 8.87930000 0.01287500 8.96119000
H 8.97933000 1.27003000 10.64000000
H 7.58978000 0.69490800 7.95446000
O 15.51958000 21.27261000 22.92311000
H 15.12438000 20.80990000 21.24541000
H 17.02718000 20.48967000 23.43871000
O 12.48950000 13.97249000 14.59080000
H 11.18100000 13.40979000 15.85321000
H 12.64160000 12.71579000 13.43619000
O 21.33340000 17.33340000 11.75440000
H 20.49730000 18.94730000 11.35190000
H 22.52760000 17.67630000 10.22760000
O 13.65510000 20.75750000 18.24893000
H 11.79270000 20.30900000 18.85890000
H 14.90670000 19.40310000 17.55639000
O 22.51120000 21.71841000 7.85211000
H 20.49340000 21.88871000 8.57951000
H 22.48050000 22.89041000 6.16451000
O 16.53745000 8.85169000 2.69196000
H 16.07146000 10.26530000 1.84696000
H 14.97563000 7.70984000 3.29613000
O 16.28090000 1.27459000 13.77550000
H 15.04370000 1.01459000 12.39640000
H 15.05060000 1.60819000 15.45260000
O 23.25011000 15.12900000 16.23491000
H 23.30047000 13.68990000 17.40591000
H 21.80639000 15.21080000 15.36381000
O 20.04431000 18.74771000 0.67090400
H 21.40071000 20.04821000 0.31252400
H 19.66271000 18.30951000 2.47938000
O 22.00010000 11.13840000 19.58348000
H 23.42840000 10.68260000 20.60218000
H 20.78640000 9.63052000 19.50498000
O 7.81419000 18.89471000 3.34739000
H 6.26059000 18.02161000 3.04859000
H 8.39509000 18.94091000 5.17160000
O 9.08381000 18.87298000 8.37181000
H 10.69230000 18.35508000 8.16191000
H 9.58836000 20.59798000 8.51991000
O 2.55230000 12.22411000 1.90579000
H 1.57313000 12.47691000 3.45462000
H 1.84949000 10.83061000 1.06772000
O 17.40395000 14.63541000 9.36389000
H 15.55858000 14.58561000 9.63076000
H 18.39544000 15.75480000 9.95892000
O 19.04486000 6.53737000 19.39200000
H 20.23105000 5.63320000 20.50320000
H 19.63044000 5.98516000 17.65280000
O 1.27871000 8.68129000 22.61367000
H 0.35211000 7.37729000 23.56407900
H 2.64471000 8.14109000 21.41217000
O 22.43820000 4.69681000 22.56651000
H 21.65980000 4.28748000 24.01231000
H 23.42950000 3.44592000 21.68481000
O 15.31540000 1.27361000 1.31742000
H 16.84500000 1.66251000 1.99952000
H 15.67550000 24.26850000 0.27192000
O 8.04729000 10.90950000 20.89910000
H 9.68499000 10.08360000 20.79150000
H 7.90539000 10.95810000 22.87880000
    
    &END COORD
  &END SUBSYS
  &DFT
    BASIS_SET_FILE_NAME  BASIS_SET
    POTENTIAL_FILE_NAME  GTH_POTENTIALS
    &QS
      EPS_DEFAULT 1.0E-10
    &END QS
    &MGRID
      NGRIDS 4
      CUTOFF 135
      REL_CUTOFF 115
    &END MGRID
    &XC
      &XC_FUNCTIONAL PADE
      &END XC_FUNCTIONAL
    &END XC
    &SCF
      SCF_GUESS ATOMIC
      EPS_SCF 1.0E-7
      MAX_SCF 300
      &DIAGONALIZATION  ON
        ALGORITHM STANDARD
      &END DIAGONALIZATION
      &MIXING  T
        METHOD BROYDEN_MIXING
        ALPHA 0.4
        NBROYDEN 8
      &END MIXING
    &END SCF
  &END DFT
  &PRINT
    &FORCES ON
    &END FORCES
  &END PRINT
&END FORCE_EVAL
