&GLOBAL
  PROJECT H2O_bulk
  RUN_TYPE ENERGY_FORCE
  PRINT_LEVEL LOW
&END GLOBAL
&FORCE_EVAL
  METHOD Quickstep
  &SUBSYS
    &KIND H
      ELEMENT   H
      BASIS_SET DZVP-GTH-PBE
      POTENTIAL GTH-PBE-q1
    &END KIND
    &KIND O
      ELEMENT   O
      BASIS_SET DZVP-GTH-PBE
      POTENTIAL GTH-PBE-q6
    &END KIND
    &CELL
      A     24.48372 0.0 0.0
      B     0.0 24.48372 0.0
      C     0.0 0.0 24.48372
    &END CELL
    &COORD

O 23.43920000 19.73064000 19.99504000
H 22.36510000 19.84232000 18.57824000
H 23.95410000 17.99285000 20.13364000
O 21.94258000 20.42978000 1.11066000
H 22.61058000 21.95088000 1.65370000
H 22.44188000 20.30328000 23.63818100
O 11.97730000 6.27474000 14.16600000
H 12.99140000 6.10785000 15.54670000
H 11.63400000 4.72928000 13.27970000
O 17.43777000 14.28022000 20.96757000
H 18.42531000 13.16022000 19.84740000
H 18.12821000 15.82169000 21.71126000
O 5.93674000 7.12458000 19.60540000
H 7.82911000 7.84658000 20.19810000
H 6.46573000 7.36388000 17.77280000
O 19.15233000 10.19630000 6.38068000
H 18.99546000 9.12264000 7.40223000
H 18.95777000 9.66678000 4.55363000
O 20.93298000 0.05708000 13.16090000
H 22.82518000 24.38730000 13.05980000
H 19.94348000 23.96640000 11.63090000
O 23.61226800 20.04494000 7.78356000
H 23.73197400 19.23314000 6.09026000
H 22.36233000 21.66444000 7.78450000
O 6.58128000 15.13194000 19.69880000
H 4.33648000 15.45694000 19.75420000
H 7.11138000 13.97314000 20.80500000
O 9.73108000 22.05944000 24.16634000
H 11.41180000 21.77754000 23.63184000
H 9.67060000 21.10054000 1.36012000
O 15.92252000 2.18476000 7.90384000
H 15.40629000 2.18057000 6.08520000
H 14.21272000 2.17170000 9.02301000
O 14.27512000 3.77938000 3.29776000
H 12.38122000 3.58268000 3.40956000
H 14.34582000 2.67958000 1.76936000
O 15.87840000 18.45754000 10.69082000
H 16.29850000 17.14224000 9.34952000
H 16.05660000 17.26884000 12.17462000
O 2.89768000 15.56590000 14.07278000
H 1.51558000 16.30300000 13.19098000
H 2.77248000 13.52290000 13.61358000
O 0.05220400 0.78747200 2.17241000
H 24.13418900 1.82332000 3.77299000
H 1.87708000 1.49750000 1.70658000
O 18.81494000 22.42940000 9.12878000
H 17.63934000 23.94850000 8.57128000
H 17.42824000 21.13760000 9.36918000
O 14.31914000 11.91650000 23.87820000
H 13.42004000 11.09980000 22.28820000
H 15.80674000 12.71230000 23.02450000
O 5.33102000 16.25926000 4.22682000
H 5.63162000 15.82966000 5.88462000
H 6.73142000 15.18926000 3.46302000
O 19.85256000 19.93970000 15.53038000
H 20.15986000 21.67070000 14.96228000
H 18.09126000 19.90240000 16.03138000
O 8.54076000 4.00122000 3.70985000
H 8.37646000 3.85242000 5.91992000
H 7.16456000 3.11032000 2.69081000
O 6.80528000 18.78120000 11.83502000
H 7.59388000 17.66840000 10.90212000
H 5.64368000 17.73300000 13.01512000
O 6.84512000 7.95117000 14.29616000
H 7.06872000 9.62090000 14.88176000
H 8.43262000 6.95578000 14.32256000
O 5.26250000 1.81299000 0.48215200
H 4.70342000 2.19333000 23.42175000
H 6.46128000 0.32623500 0.24478500
O 20.56288000 4.02442000 0.07668000
H 19.23888000 5.56903000 0.30228000
H 21.33558000 3.09833000 1.79728000
O 23.88030400 12.28166000 5.86228000
H 22.36212000 11.66416000 5.22678000
H 23.71848200 14.27466000 5.32248000
O 10.45850000 14.95098000 10.83960000
H 9.63965000 13.65878000 9.73909000
H 12.28290000 14.09068000 10.80160000
O 7.75662000 19.95030000 19.62640000
H 7.60052000 18.09700000 19.50730000
H 8.51802000 20.60620000 21.26780000
O 7.82348000 9.26938000 3.77546000
H 8.71268000 7.75798000 3.85366000
H 6.26178000 9.00828000 2.94016000
O 11.40990000 9.22318000 19.92860000
H 10.59110000 10.18978000 18.44940000
H 12.68720000 8.01888000 19.51860000
O 3.28360000 22.30344000 18.02860000
H 2.04468000 21.49974000 19.11620000
H 4.83564000 21.58514000 18.97790000
O 0.00726100 16.96880000 3.80091000
H 1.97451000 16.88210000 3.33444000
H 23.58353800 17.67820000 2.55588000
O 1.60909000 0.43465000 13.65730000
H 2.72148000 23.97448500 12.46190000
H 2.02765000 23.95768900 15.18120000
O 15.45064000 5.53486000 18.23544000
H 17.15254000 5.10866000 17.45484000
H 15.52644000 3.98046000 19.33784000
O 6.01869000 2.24096000 8.95512000
H 4.89702000 3.53626000 9.84532000
H 5.51823000 0.68316000 8.88682000
O 14.14344000 15.72058000 2.32471000
H 13.76894000 14.21408000 1.41572000
H 12.48244000 16.57388000 2.76394000
O 19.67360000 12.45598000 11.91130000
H 20.64990000 13.96118000 11.98730000
H 19.79620000 11.92148000 10.15550000
O 6.94002000 12.63832000 7.70029000
H 7.55512000 11.45122000 6.57818000
H 5.24712000 11.96062000 8.79720000
O 3.29944000 2.85539000 20.02890000
H 3.12454000 1.33693000 19.14210000
H 4.63454000 3.78914000 19.31770000
O 2.02522000 11.13752000 10.61708000
H 1.76932000 9.43172000 11.07848000
H 1.02282000 11.07572000 8.98818000
O 17.15150000 15.33640000 6.92348000
H 18.19290000 14.05370000 6.75898000
H 15.91250000 15.09320000 5.55698000
O 3.62852000 22.16542000 9.30758000
H 4.67082000 20.98674000 9.81988000
H 2.37552000 21.47443000 8.28078000
O 19.96328000 5.85750000 9.29378000
H 18.20358000 5.03614000 8.70478000
H 19.88778000 6.03005000 11.07948000
O 13.84642000 14.96774000 15.80951000
H 13.98392000 14.59014000 17.68194000
H 13.82042000 13.52024000 14.55661000
O 3.04286000 5.32092000 12.18192000
H 4.43406000 6.01732000 13.36672000
H 2.39626000 3.69102000 12.99332000
O 10.78640000 2.20877000 11.24130000
H 10.30550000 0.84038100 12.47750000
H 9.23108000 2.60703000 10.50880000
O 14.38774000 21.88540000 21.04308000
H 13.63204000 21.15640000 19.09108000
H 15.72264000 20.78962000 21.97288000
O 8.73555000 12.07242000 16.18350000
H 8.11605000 13.31462000 17.70572000
H 9.69231000 13.41152000 14.95493000
O 22.58220000 16.73210000 12.30960000
H 21.84490000 17.14520000 13.78570000
H 22.96720000 17.72750000 10.91610000
O 9.80263000 22.27870000 14.60986000
H 9.86491000 21.71360000 16.27574000
H 8.41719000 21.25370000 13.96702000
O 24.07160000 3.36626000 6.48778000
H 1.08478000 4.01756000 7.04998000
H 22.74440000 3.81756000 7.49638000
O 17.10760000 7.80096000 1.97855000
H 16.30736000 9.00380000 0.82230600
H 15.78925000 6.78691000 2.59942000
O 14.39240000 19.75934000 16.08570000
H 13.44720000 21.09734000 15.49750000
H 13.84490000 18.02804000 15.94820000
O 1.23995000 15.23970000 19.33758000
H 0.83417200 13.70670000 20.04378000
H 1.28614000 15.14340000 17.17148000
O 17.41148000 18.40388000 24.20306900
H 18.95178000 18.92308000 0.67758400
H 16.23168000 17.51798000 0.52148200
O 20.07440000 11.37640000 17.14994000
H 20.94970000 9.63291000 17.16084000
H 20.31680000 11.39180000 15.16254000
O 10.36022000 19.11568000 3.80203000
H 8.70652000 18.80618000 4.52601000
H 10.45442000 20.33808000 5.38150000
O 11.59340000 20.96744000 8.25968000
H 12.77690000 19.32554000 9.11168000
H 10.86810000 21.95424000 9.46268000
O 3.02420000 10.49608000 1.63218000
H 1.57342000 10.80428000 2.51103000
H 1.97540000 10.35688000 0.20214200
O 14.73009000 11.36272000 12.43250000
H 14.24152000 9.78322000 13.22440000
H 16.27790000 11.81312000 12.49250000
O 19.43946000 4.45664000 15.17240000
H 20.95609000 4.52985000 16.47410000
H 19.71806000 2.83090000 14.03370000
O 1.58298000 9.82032000 20.85135000
H 0.30978000 8.31442000 20.83541000
H 3.06708000 8.94472000 20.08798000
O 22.56410000 5.71400000 20.13938000
H 22.05640000 4.62183000 21.49038000
H 24.21170000 5.48440000 20.40398000
O 15.98150000 2.09668000 22.50518000
H 17.68230000 2.22268000 23.01148000
H 15.78830000 0.54328000 21.88728000
O 7.34552000 12.16180000 23.92870000
H 8.65442000 11.40160000 0.54278000
H 5.63382000 12.20360000 0.08918000
    
    &END COORD
  &END SUBSYS
  &DFT
    BASIS_SET_FILE_NAME  BASIS_SET
    POTENTIAL_FILE_NAME  GTH_POTENTIALS
    &QS
      EPS_DEFAULT 1.0E-10
    &END QS
    &MGRID
      NGRIDS 4
      CUTOFF 135
      REL_CUTOFF 115
    &END MGRID
    &XC
      &XC_FUNCTIONAL PADE
      &END XC_FUNCTIONAL
    &END XC
    &SCF
      SCF_GUESS ATOMIC
      EPS_SCF 1.0E-7
      MAX_SCF 300
      &DIAGONALIZATION  ON
        ALGORITHM STANDARD
      &END DIAGONALIZATION
      &MIXING  T
        METHOD BROYDEN_MIXING
        ALPHA 0.4
        NBROYDEN 8
      &END MIXING
    &END SCF
  &END DFT
  &PRINT
    &FORCES ON
    &END FORCES
  &END PRINT
&END FORCE_EVAL
