&GLOBAL
  PROJECT H2O_bulk
  RUN_TYPE ENERGY_FORCE
  PRINT_LEVEL LOW
&END GLOBAL
&FORCE_EVAL
  METHOD Quickstep
  &SUBSYS
    &KIND H
      ELEMENT   H
      BASIS_SET DZVP-GTH-PBE
      POTENTIAL GTH-PBE-q1
    &END KIND
    &KIND O
      ELEMENT   O
      BASIS_SET DZVP-GTH-PBE
      POTENTIAL GTH-PBE-q6
    &END KIND
    &CELL
      A     25.30367 0.0 0.0
      B     0.0 25.30367 0.0
      C     0.0 0.0 25.30367
    &END CELL
    &COORD

O 6.23686000 5.46512000 23.44940000
H 4.97561000 6.20410000 22.60060000
H 5.87350000 6.27540000 25.12630000
O 18.58930000 4.20824000 2.76995000
H 17.38170000 4.97024000 2.15676000
H 18.06140000 4.01778000 4.51464000
O 22.09630000 18.46210000 24.39470000
H 22.61730000 17.03780000 23.40470000
H 20.46090000 19.17340000 23.68360000
O 19.72230000 23.68970000 1.54472000
H 19.20880000 0.77684600 1.78212000
H 19.51830000 23.25540000 24.98988500
O 4.04103000 2.01252000 12.86950000
H 3.76753000 1.38628000 11.49590000
H 3.06268000 0.69632200 13.86260000
O 17.56660000 24.07700000 6.88552000
H 16.74160000 0.38235200 6.50080000
H 17.93390000 23.26730000 5.13220000
O 12.67120000 19.11890000 3.78872000
H 14.37940000 18.80380000 4.60303000
H 12.45020000 17.43700000 3.65965000
O 25.27312100 21.71160000 3.02481000
H 0.57264200 23.42830000 2.87157000
H 23.68280000 21.81000000 2.61597000
O 16.23970000 11.89610000 6.00646000
H 18.04690000 14.44600000 2.57302000
H 15.44220000 10.65250000 4.55676000
O 1.95091000 14.10650000 12.32620000
H 3.52123000 15.29660000 12.53960000
H 0.66205200 15.17810000 12.98980000
O 21.57220000 25.13710000 14.62910000
H 19.83800000 2.07030000 15.25040000
H 21.06720000 24.72530000 12.44870000
O 21.59240000 3.81178000 18.39390000
H 20.68470000 6.06439000 18.05000000
H 22.49930000 3.72937000 16.85540000
O 22.81100000 23.06850000 9.22856000
H 21.98210000 21.34940000 8.64571000
H 21.41130000 24.27080000 7.41148000
O 3.87775000 0.65394700 2.85370000
H 5.71831000 0.79253000 3.13521000
H 3.25138000 0.32321500 1.17396000
O 8.88871000 13.33630000 7.84016000
H 9.55516000 11.65140000 7.21707000
H 10.57600000 14.02750000 8.53520000
O 12.71200000 7.37573000 8.69231000
H 12.38410000 5.80770000 9.13659000
H 11.70110000 8.09870000 10.09380000
O 14.42320000 21.23790000 10.45250000
H 12.98440000 21.50550000 9.19489000
H 15.82850000 21.72500000 9.42863000
O 12.36150000 15.28250000 12.09800000
H 12.21490000 13.63050000 11.84530000
H 10.70850000 16.28370000 12.81750000
O 20.45550000 17.99190000 7.65266000
H 19.74090000 17.75640000 9.06777000
H 21.05320000 16.21900000 7.12638000
O 20.33670000 19.56980000 15.99820000
H 21.46570000 19.46470000 17.38260000
H 19.71910000 21.30020000 15.72580000
O 7.55229000 13.26690000 22.82920000
H 6.61942000 12.18280000 22.53880000
H 6.79984000 14.71420000 23.42590000
O 11.07810000 2.21013000 9.68128000
H 9.90338000 2.82272000 11.12670000
H 11.89040000 0.49415900 10.17210000
O 2.78936000 23.87730000 17.01000000
H 3.49673000 24.87184800 18.58500000
H 1.18772000 23.41950000 17.44090000
O 10.33050000 0.19441300 18.45310000
H 9.12350000 24.20700000 19.00240000
H 9.47754000 1.77210000 18.03910000
O 9.71650000 13.59630000 17.55510000
H 8.25982000 14.32330000 18.27330000
H 10.85580000 14.94370000 17.58720000
O 24.62200000 8.98800000 10.82080000
H 23.64835000 10.51360000 11.58430000
H 25.03180000 8.08724000 12.21820000
O 17.38490000 18.63790000 20.83380000
H 15.80630000 17.89520000 20.40270000
H 16.93420000 21.09510000 19.52750000
O 1.75246000 8.83014000 21.85220000
H 0.78247000 10.11020000 20.78850000
H 1.09787000 9.35086000 23.51820000
O 21.72230000 10.97040000 20.05890000
H 20.88820000 11.18630000 18.64470000
H 21.59860000 12.79450000 20.60900000
O 3.71086000 20.59000000 6.88839000
H 1.69225000 19.66760000 6.94181000
H 4.24391000 20.62570000 5.03947000
O 0.83963500 16.14830000 21.73670000
H 1.74299000 17.65780000 22.44300000
H 0.63395200 16.54450000 20.02850000
O 9.33037000 22.54140000 7.28051000
H 7.84300000 22.48160000 6.28969000
H 10.38730000 21.80530000 5.94339000
O 5.10905000 18.61530000 15.90510000
H 5.48853000 19.04340000 17.70540000
H 5.81947000 19.44810000 14.82600000
O 8.73710000 4.29370000 14.51820000
H 6.97097000 4.04827000 14.88980000
H 9.49237000 6.02961000 14.61490000
O 0.08120800 17.27960000 16.44550000
H 24.11080000 18.47090000 15.54880000
H 1.65338000 17.79610000 15.84300000
O 14.21300000 6.75593000 25.14280900
H 15.51600000 7.52612000 24.03000000
H 13.49390000 5.33897000 23.94730000
O 0.30900100 5.53667000 15.06020000
H 0.81853600 6.88906000 16.44500000
H 1.43764000 4.59938000 13.94980000
O 10.49210000 23.53420000 0.62565900
H 11.24290000 21.89040000 0.75948400
H 9.13132000 23.81950000 2.23916000
O 10.11270000 8.61910000 2.48937000
H 9.74916000 10.16180000 1.76423000
H 12.73210000 7.94106000 0.87483100
O 19.43390000 11.49620000 15.25750000
H 18.08710000 12.48810000 14.81940000
H 20.33110000 11.44420000 13.85050000
O 17.26980000 24.03270000 20.65470000
H 15.68140000 24.42497000 20.57000000
H 20.09130000 2.65155000 17.88960000
O 4.47103000 10.07030000 16.50990000
H 3.52553000 11.00410000 15.54360000
H 6.76085000 10.44570000 15.69750000
O 13.68180000 14.43320000 21.20920000
H 13.33160000 15.05820000 22.75070000
H 14.59320000 13.02370000 21.44580000
O 11.42350000 9.52771000 14.65910000
H 11.19360000 10.07830000 16.30520000
H 13.00870000 8.70525000 14.33720000
O 17.64330000 16.92880000 3.17926000
H 18.42420000 16.38980000 4.77117000
H 18.94750000 17.57800000 2.31229000
O 24.91550000 12.12190000 3.17010000
H 21.60730000 10.08110000 4.51987000
H 0.09183000 10.70110000 3.20688000
O 0.46520600 16.01090000 6.74474000
H 25.27181600 15.96500000 8.38977000
H 0.17957900 14.51290000 5.81431000
O 3.24141000 1.34968000 22.80570000
H 4.66391000 2.56271000 22.99810000
H 1.64399000 2.19732000 21.99220000
O 8.60114000 16.14250000 3.03363000
H 6.95088000 16.69190000 3.44082000
H 8.99189000 15.68110000 4.73409000
O 23.56990000 5.96460000 24.40370000
H 22.82010000 4.76446000 0.22512500
H 23.30450000 5.68941000 22.59560000
O 2.77300000 7.75348000 5.52695000
H 1.77765000 5.96759000 4.64881000
H 1.77921000 7.85902000 6.81812000
O 16.22420000 7.38293000 16.17000000
H 15.86530000 5.62314000 16.20940000
H 17.08400000 7.86159000 14.60620000
O 1.17567000 1.92055000 7.70920000
H 2.11735000 0.87220800 6.83449000
H 0.57676800 0.76293200 8.96990000
O 12.97270000 2.45691000 22.73510000
H 11.32260000 2.59562000 22.81620000
H 12.85700000 1.94288000 24.57360000
O 6.67646000 21.91410000 22.08810000
H 8.26539000 21.70350000 22.89900000
H 6.28378000 23.50820000 21.72920000
O 4.31126000 18.55380000 0.44772400
H 2.72218000 18.98700000 24.93290300
H 5.04477000 20.10280000 0.00693000
O 20.64240000 9.22841000 6.59291000
H 21.22340000 10.76110000 7.19952000
H 18.85850000 9.82329000 6.70563000
O 8.97726000 2.71131000 3.81409000
H 9.48538000 2.43375000 5.37683000
H 8.63976000 4.57672000 3.56678000
O 16.91650000 9.92829000 21.40330000
H 18.40900000 9.27067000 21.02900000
H 15.70220000 9.70588000 19.87840000
O 6.47479000 17.49530000 10.87770000
H 5.69437000 19.44080000 8.47457000
H 7.71262000 16.14460000 9.84813000
O 17.72970000 4.99333000 8.84489000
H 16.22220000 5.98885000 9.66128000
H 19.28640000 5.93437000 9.85426000
O 12.54170000 20.01180000 16.41390000
H 12.12800000 21.64770000 17.40150000
H 12.97570000 21.03910000 14.82720000
O 17.95030000 16.08090000 12.32570000
H 18.89850000 16.87610000 13.78970000
H 16.09460000 16.36100000 12.20140000
O 15.07100000 2.60754000 13.84350000
H 12.89700000 1.66537000 13.66180000
H 16.29060000 1.65329000 9.44540000
    
    &END COORD
  &END SUBSYS
  &DFT
    BASIS_SET_FILE_NAME  BASIS_SET
    POTENTIAL_FILE_NAME  GTH_POTENTIALS
    &QS
      EPS_DEFAULT 1.0E-10
    &END QS
    &MGRID
      NGRIDS 4
      CUTOFF 135
      REL_CUTOFF 115
    &END MGRID
    &XC
      &XC_FUNCTIONAL PADE
      &END XC_FUNCTIONAL
    &END XC
    &SCF
      SCF_GUESS ATOMIC
      EPS_SCF 1.0E-7
      MAX_SCF 300
      &DIAGONALIZATION  ON
        ALGORITHM STANDARD
      &END DIAGONALIZATION
      &MIXING  T
        METHOD BROYDEN_MIXING
        ALPHA 0.4
        NBROYDEN 8
      &END MIXING
    &END SCF
  &END DFT
  &PRINT
    &FORCES ON
    &END FORCES
  &END PRINT
&END FORCE_EVAL
