&GLOBAL
  PROJECT H2O_bulk
  RUN_TYPE ENERGY_FORCE
  PRINT_LEVEL LOW
&END GLOBAL
&FORCE_EVAL
  METHOD Quickstep
  &SUBSYS
    &KIND H
      ELEMENT   H
      BASIS_SET DZVP-GTH-PBE
      POTENTIAL GTH-PBE-q1
    &END KIND
    &KIND O
      ELEMENT   O
      BASIS_SET DZVP-GTH-PBE
      POTENTIAL GTH-PBE-q6
    &END KIND
    &CELL
      A     23.84267 0.0 0.0
      B     0.0 23.84267 0.0
      C     0.0 0.0 23.84267
    &END CELL
    &COORD

O 3.71679000 2.74997000 8.67944000
H 2.74486000 3.97623000 9.66140000
H 3.76028000 1.24263000 9.76223000
O 15.00550000 5.47162000 9.44208000
H 13.57450000 5.45538000 8.09737000
H 16.22990000 4.18366000 8.83161000
O 15.63640000 21.16660000 4.53961000
H 14.88120000 22.23570000 3.04401000
H 15.76270000 19.67550000 3.90900000
O 6.40928000 6.14050000 15.12350000
H 7.26117000 7.33529000 15.80330000
H 7.54137000 5.38477000 13.97560000
O 6.64302000 15.72500000 15.72500000
H 5.65385000 14.48630000 16.41360000
H 6.72563000 17.61190000 16.64750000
O 4.24363000 22.10900000 12.16590000
H 2.55737000 21.19690000 12.16250000
H 4.54478000 22.70350000 14.01840000
O 16.19360000 11.80880000 7.94214000
H 16.25520000 13.04330000 6.54258000
H 14.92990000 12.89190000 8.88686000
O 7.98473000 15.77870000 7.35753000
H 6.51960000 14.72250000 7.78493000
H 8.37461000 14.88210000 5.76442000
O 13.94350000 0.62449500 1.03365000
H 15.54130000 1.28534000 0.69591900
H 12.65540000 1.60218000 0.36595700
O 1.00690000 11.27380000 13.72620000
H 23.50444500 12.32150000 13.60890000
H 2.41923000 12.07170000 13.55760000
O 18.73570000 10.23890000 1.64970000
H 17.69720000 10.43050000 23.80834500
H 19.16970000 11.79500000 2.42534000
O 2.78050000 5.04006000 18.53690000
H 3.58587000 4.90058000 20.30980000
H 4.21094000 4.88370000 17.09200000
O 16.42180000 15.74580000 4.43304000
H 18.08260000 16.04090000 3.71449000
H 15.79960000 15.27280000 3.06708000
O 5.72269000 20.98020000 18.57560000
H 7.46328000 21.48320000 18.41790000
H 5.55146000 20.45460000 20.26980000
O 14.19300000 14.16400000 0.17613000
H 14.24260000 12.82950000 22.69170000
H 14.55920000 15.78800000 23.04900000
O 4.50657000 1.75772000 3.80492000
H 4.08200000 1.68298000 5.54390000
H 6.01583000 0.98966000 3.76212000
O 0.24923000 22.66560000 17.50870000
H 0.66337200 0.74513000 18.03360000
H 2.17716000 21.98280000 17.40650000
O 12.15800000 15.16020000 15.97220000
H 12.15600000 15.08330000 14.07580000
H 10.29490000 15.27720000 15.57440000
O 7.03383000 21.39780000 7.96498000
H 5.84988000 21.25340000 9.71816000
H 6.51485000 19.55470000 7.22682000
O 4.21754000 12.44940000 18.64100000
H 2.85665000 12.75280000 19.01040000
H 4.81675000 11.52050000 20.10960000
O 19.56120000 9.12483000 10.47530000
H 18.30950000 7.52752000 10.91880000
H 18.21210000 10.03700000 9.16151000
O 23.13540000 1.54752000 1.11301000
H 1.17903000 1.75458000 1.19106000
H 22.41560000 2.89276000 2.44562000
O 11.52580000 10.05220000 10.29390000
H 11.71750000 11.80840000 10.87740000
H 12.84730000 9.65887000 9.38853000
O 20.28170000 21.95890000 6.26683000
H 21.11920000 21.17160000 4.78400000
H 18.36170000 21.90480000 6.19677000
O 5.02833000 5.32441000 23.37098600
H 4.64010000 7.01000000 0.24032000
H 5.04142000 4.26356000 0.67340400
O 15.70670000 10.09630000 21.28800000
H 15.96030000 10.52570000 19.78480000
H 15.01590000 8.37448000 21.52740000
O 15.47830000 18.63930000 21.68620000
H 17.01750000 18.12930000 20.64320000
H 15.07990000 20.81830000 21.03330000
O 12.46540000 15.55260000 10.37790000
H 13.16180000 17.24710000 10.22630000
H 10.94310000 15.89260000 9.94963000
O 20.14280000 4.32124000 13.72530000
H 21.50840000 3.80872000 12.66510000
H 20.68790000 5.03645000 15.32350000
O 4.51551000 18.25460000 23.45460000
H 4.04611000 16.81710000 23.34040000
H 6.38287000 18.09270000 23.55950000
O 15.19730000 5.37632000 14.85830000
H 16.67760000 5.16556000 14.20770000
H 14.17350000 6.05656000 13.34560000
O 4.73922000 10.26120000 1.25158000
H 4.56206000 10.31580000 2.84197000
H 3.53020000 11.53840000 0.50162700
O 14.93080000 6.19435000 2.72018000
H 15.50770000 4.36432000 3.41047000
H 16.32080000 7.83119000 2.90297000
O 14.22140000 5.37452000 19.98540000
H 14.01370000 5.73856000 18.37840000
H 15.69810000 4.49033000 20.25420000
O 0.26370000 9.70985000 6.71593000
H 23.13599900 9.40263000 8.05469000
H 0.97365100 11.36130000 6.58803000
O 10.91070000 23.70051700 10.20620000
H 10.52800000 1.49974000 10.47910000
H 9.56249000 22.83941000 9.59073000
O 17.15580000 22.94810000 18.00480000
H 15.89170000 23.34670000 16.83990000
H 18.59460000 22.28910000 17.06880000
O 9.20351000 23.29330000 3.69658000
H 8.58305000 22.23770000 5.07871000
H 10.77550000 22.47050000 3.00175000
O 17.78920000 2.72661000 5.93070000
H 18.53840000 1.17956000 6.05859000
H 19.43730000 3.59590000 5.03619000
O 5.31894000 11.32850000 9.40710000
H 4.64809000 10.01710000 8.11199000
H 7.31948000 10.98890000 9.33923000
O 11.19030000 22.90130000 19.49250000
H 11.86550000 23.44790000 17.92180000
H 10.44170000 0.55153000 20.77570000
O 1.39495000 13.73840000 23.79200000
H 23.68625500 13.44270000 0.88563000
H 0.52475600 14.15620000 21.84430000
O 13.01690000 0.29442800 15.12450000
H 14.05400000 1.92819000 15.03320000
H 12.38940000 23.61344500 13.49760000
O 18.02960000 1.92680000 22.27320000
H 17.88620000 0.84120000 21.24900000
H 19.79270000 1.90353000 22.77400000
O 23.19108100 20.34470000 1.96809000
H 0.67703900 18.91220000 1.42149000
H 0.21662400 22.00780000 1.46047000
O 20.57010000 13.89660000 12.50920000
H 20.17880000 12.44550000 11.90640000
H 19.55940000 14.52660000 13.56560000
O 18.30060000 19.73100000 13.74580000
H 17.28010000 18.31270000 14.74980000
H 17.15800000 20.31360000 12.53810000
O 22.46170000 8.04257000 17.47910000
H 23.77590000 6.88991000 17.85950000
H 23.50720000 8.91192000 15.91490000
O 21.76000000 18.60710000 20.02510000
H 21.46500000 19.39010000 21.71470000
H 22.60760000 20.17850000 19.12290000
O 5.56250000 7.47740000 5.88414000
H 6.95282000 6.19413000 5.21970000
H 4.29300000 6.29404000 6.40223000
O 22.82060000 13.84650000 18.89970000
H 22.05750000 12.96630000 17.20420000
H 22.23580000 15.68600000 18.96990000
O 9.81572000 12.81660000 3.55691000
H 8.94770000 11.40960000 2.94089000
H 11.30110000 12.97890000 2.40702000
O 1.69818000 6.39710000 12.31690000
H 3.57620000 6.21566000 12.97540000
H 1.40643000 8.18449000 13.04390000
O 9.20188000 5.30624000 10.91140000
H 9.81908000 7.22229000 10.83550000
H 8.59057000 5.36718000 9.47761000
O 10.21390000 3.71456000 23.28320000
H 8.48409000 4.36797000 22.92510000
H 11.69800000 5.19811000 22.61330000
O 15.10160000 20.55260000 9.54667000
H 14.79510000 20.07770000 7.40429000
H 13.85880000 21.64960000 10.27020000
O 21.50110000 6.22971000 4.01673000
H 22.62960000 7.57558000 5.06561000
H 20.34150000 7.27613000 3.03668000
O 17.79350000 9.64493000 16.35080000
H 19.60150000 9.08935000 16.64540000
H 16.79350000 8.07500000 15.98050000
O 21.39570000 15.65790000 3.15277000
H 21.59600000 14.92960000 4.84786000
H 22.12380000 17.41300000 3.14894000
O 9.93646000 19.36680000 22.46780000
H 10.48670000 21.05720000 21.12870000
H 11.39300000 17.84930000 21.72880000
O 17.26870000 15.07480000 16.21420000
H 17.92080000 13.05550000 16.49170000
H 15.21150000 14.78060000 16.65750000
O 22.09150000 15.73090000 8.12950000
H 21.34500000 14.53780000 9.76772000
H 22.56530000 17.34520000 8.85503000
O 22.89430000 20.25100000 10.78520000
H 22.04410000 21.27370000 9.51534000
H 21.49330000 19.95730000 11.97910000
O 10.30780000 4.45659000 5.01405000
H 11.60650000 5.05418000 4.03564000
H 10.44220000 2.62862000 4.19978000
    
    &END COORD
  &END SUBSYS
  &DFT
    BASIS_SET_FILE_NAME  BASIS_SET
    POTENTIAL_FILE_NAME  GTH_POTENTIALS
    &QS
      EPS_DEFAULT 1.0E-10
    &END QS
    &MGRID
      NGRIDS 4
      CUTOFF 135
      REL_CUTOFF 115
    &END MGRID
    &XC
      &XC_FUNCTIONAL PADE
      &END XC_FUNCTIONAL
    &END XC
    &SCF
      SCF_GUESS ATOMIC
      EPS_SCF 1.0E-7
      MAX_SCF 300
      &DIAGONALIZATION  ON
        ALGORITHM STANDARD
      &END DIAGONALIZATION
      &MIXING  T
        METHOD BROYDEN_MIXING
        ALPHA 0.4
        NBROYDEN 8
      &END MIXING
    &END SCF
  &END DFT
  &PRINT
    &FORCES ON
    &END FORCES
  &END PRINT
&END FORCE_EVAL
