&GLOBAL
  PROJECT H2O_bulk
  RUN_TYPE ENERGY_FORCE
  PRINT_LEVEL LOW
&END GLOBAL
&FORCE_EVAL
  METHOD Quickstep
  &SUBSYS
    &KIND H
      ELEMENT   H
      BASIS_SET DZVP-GTH-PBE
      POTENTIAL GTH-PBE-q1
    &END KIND
    &KIND O
      ELEMENT   O
      BASIS_SET DZVP-GTH-PBE
      POTENTIAL GTH-PBE-q6
    &END KIND
    &CELL
      A     25.24593 0.0 0.0
      B     0.0 25.24593 0.0
      C     0.0 0.0 25.24593
    &END CELL
    &COORD

O 12.18950000 0.10654900 5.11497000
H 14.20840000 0.76479100 4.43777000
H 11.21940000 1.67045000 4.62527000
O 23.33080000 0.41105700 15.71860000
H 23.41670000 1.60186000 14.43850000
H 21.55490000 0.37653500 16.02540000
O 12.91340000 22.23020000 19.42970000
H 12.95150000 20.97980000 18.37410000
H 14.77230000 22.06730000 19.87100000
O 24.29490000 11.92750000 22.83490000
H 24.14490000 10.96400000 24.38865800
H 22.60780000 11.58730000 22.00270000
O 15.99210000 11.95870000 24.66520000
H 15.30230000 10.87950000 23.44390000
H 15.15430000 13.24840000 24.28830000
O 5.04387000 13.81340000 2.58676000
H 5.71300000 12.77630000 1.16412000
H 3.77701000 12.71890000 3.17598000
O 22.44140000 17.53750000 20.53030000
H 23.42140000 17.08590000 22.14810000
H 23.63930000 18.50560000 19.34540000
O 4.06693000 8.80638000 9.48071000
H 3.30317000 8.25478000 11.18170000
H 4.67693000 7.22427000 8.67815000
O 4.74511000 14.26260000 8.72037000
H 6.45192000 14.90810000 7.52058000
H 4.47331000 12.69790000 9.44435000
O 10.90530000 6.77706000 20.19730000
H 10.28950000 6.76116000 21.75630000
H 9.60222000 7.34334000 19.17240000
O 3.79272000 6.06344000 14.51600000
H 3.88547000 4.64864000 13.87690000
H 2.45906000 5.88292000 15.40570000
O 16.20180000 11.12420000 9.21497000
H 15.79270000 11.72600000 7.36506000
H 17.97960000 10.74310000 9.64445000
O 11.55010000 20.17440000 3.01857000
H 12.00110000 21.65760000 3.79706000
H 9.62308000 20.56380000 2.37583000
O 23.91680000 20.36100000 0.19077100
H 25.02373000 21.80000000 25.01966800
H 23.45770000 19.23280000 24.05130000
O 9.57989000 1.69302000 22.05670000
H 10.14830000 3.08597000 21.22980000
H 9.85572000 0.05475500 21.07800000
O 0.92375200 1.00673000 5.96401000
H 1.99304000 0.01433800 5.13917000
H 0.35483000 1.83084000 4.89927000
O 2.30196000 7.71108000 23.78680000
H 2.10292000 9.25208000 23.68370000
H 2.01319000 7.47478000 0.50864800
O 18.41680000 1.94267000 21.15000000
H 17.24100000 0.58913400 21.44050000
H 18.35700000 2.32286000 18.74860000
O 8.95978000 9.27680000 4.48311000
H 8.75811000 10.92610000 5.22931000
H 7.72308000 9.48513000 3.59500000
O 7.15635000 0.73628800 14.88320000
H 8.76974000 1.18478000 14.69890000
H 6.20949000 0.90747800 16.40790000
O 16.19570000 20.73520000 11.25660000
H 15.83820000 19.22540000 12.00530000
H 14.97650000 21.25160000 10.56920000
O 0.46268900 10.41700000 13.03920000
H 24.13000000 10.54240000 11.96080000
H 24.75390000 10.53600000 14.62130000
O 9.20613000 19.39170000 16.47170000
H 8.46691000 21.06790000 16.21630000
H 7.94377000 18.24590000 15.67500000
O 6.97243000 4.28926000 7.19869000
H 7.13214000 4.38875000 5.42563000
H 5.26688000 3.52330000 7.35286000
O 18.45250000 2.98532000 15.96320000
H 19.64350000 4.44171000 16.59440000
H 17.80480000 2.75518000 14.32470000
O 7.40536000 4.11176000 1.27380000
H 7.06985000 3.21523000 24.16803000
H 5.87469000 4.46809000 2.27256000
O 0.59903300 9.48731000 5.13593000
H 24.40078200 10.64100000 4.67759000
H 2.24677000 10.12780000 5.87229000
O 10.11820000 20.20650000 9.56988000
H 9.78981000 20.80270000 7.85866000
H 10.48960000 21.73180000 10.17700000
O 19.82660000 9.36563000 15.36270000
H 18.68580000 9.73935000 13.99210000
H 18.97730000 9.67673000 16.82570000
O 0.11804400 5.03885000 18.91410000
H 0.90271100 6.12432000 20.16020000
H 25.08810000 3.74960000 20.07740000
O 15.52680000 6.33523000 23.20680000
H 14.22270000 6.83440000 22.49980000
H 15.87610000 4.90684000 22.10110000
O 19.89630000 10.18980000 20.82330000
H 19.45300000 8.21801000 21.17870000
H 18.51630000 10.80840000 22.15970000
O 17.87840000 15.31110000 15.14890000
H 18.77580000 14.48750000 16.53790000
H 15.84010000 15.61320000 15.94270000
O 4.60544000 24.27760000 22.56190000
H 5.69319000 0.01823800 23.61980000
H 4.65792000 22.88900000 23.73220000
O 7.73856000 9.79246000 23.89530000
H 6.76902000 8.17413000 23.86390000
H 7.49662000 10.26670000 22.23830000
O 5.73798000 19.08760000 11.88520000
H 7.23134000 18.90210000 10.92510000
H 4.59553000 17.66410000 11.01700000
O 17.62710000 13.96330000 4.02014000
H 18.05550000 15.77390000 4.55832000
H 17.16090000 13.46680000 2.22674000
O 22.68050000 14.17530000 3.41504000
H 21.20270000 13.55210000 3.47922000
H 22.63200000 15.50020000 1.51976000
O 17.02440000 6.25156000 7.35802000
H 16.63100000 7.76449000 7.41169000
H 16.88910000 5.92892000 5.59476000
O 22.57810000 22.08270000 8.50952000
H 23.78310000 23.03930000 7.44333000
H 20.89220000 22.75570000 8.77033000
O 17.85380000 21.41330000 21.78500000
H 17.81330000 19.65100000 20.98460000
H 13.68740000 19.52740000 24.39300000
O 8.58125000 17.07230000 21.60010000
H 9.10386000 18.26940000 20.55160000
H 7.07569000 16.17080000 21.34260000
O 0.79319200 13.71040000 17.65080000
H 0.72430900 13.50250000 15.76990000
H 0.04029500 12.24790000 18.41420000
O 23.35680000 18.41510000 12.61690000
H 24.66540000 20.66130000 10.49280000
H 22.49770000 19.08130000 14.05530000
O 11.71250000 8.25084000 12.28690000
H 10.90640000 7.01205000 11.16000000
H 12.52040000 9.06489000 11.15220000
O 5.96572000 12.88080000 19.42820000
H 7.09322000 13.75070000 18.52820000
H 4.41197000 13.04310000 19.01470000
O 13.85920000 17.55960000 23.96020000
H 12.21550000 17.50840000 23.21070000
H 14.07590000 17.47270000 0.54219000
O 6.15520000 19.51640000 0.50115400
H 5.04338000 18.14940000 0.71129700
H 7.09205000 19.02230000 24.37490000
O 8.42602000 8.72537000 16.41350000
H 9.80907000 9.05943000 15.05530000
H 7.08558000 7.52688000 15.60560000
O 22.22840000 5.66879000 0.13173700
H 21.94580000 4.83910000 1.78702000
H 21.34810000 4.86578000 23.98090000
O 9.79018000 1.53373000 11.08680000
H 10.10590000 1.93991000 8.91394000
H 11.41440000 2.23665000 11.83210000
O 15.23630000 3.38955000 11.68820000
H 14.65920000 5.12150000 12.19880000
H 15.43490000 3.68841000 10.08010000
O 18.42950000 0.78652800 3.87563000
H 19.12620000 24.52460000 3.39072000
H 19.22810000 1.29508000 5.21674000
O 20.93290000 13.20820000 10.28570000
H 20.20510000 14.18950000 9.29470000
H 22.18320000 13.95140000 11.19120000
O 21.84110000 4.79078000 5.50151000
H 20.29170000 5.34957000 6.17707000
H 22.58850000 6.18738000 5.17936000
O 10.92520000 14.87980000 5.41855000
H 11.50820000 15.47600000 3.62793000
H 12.08610000 15.67860000 6.32679000
O 13.24500000 5.81399000 3.25365000
H 13.04710000 7.64709000 3.13716000
H 13.41410000 5.01199000 1.66153000
O 10.62200000 14.84980000 10.91570000
H 10.58690000 16.65080000 11.20590000
H 8.88128000 14.57560000 11.21690000
O 19.45330000 25.10520000 10.57320000
H 20.92430000 24.14684000 11.20080000
H 18.08070000 24.42740000 11.63810000
O 0.92320500 1.27898000 0.06438700
H 1.72192000 0.74992900 23.96910000
H 24.54333500 2.59095000 0.37461600
O 1.14162000 21.85590000 19.33320000
H 2.00848000 22.23610000 20.93130000
H 24.83846200 22.82430000 19.96890000
O 19.54870000 19.30270000 3.77530000
H 21.64650000 19.22020000 2.93124000
H 20.18840000 19.56450000 5.42732000
O 5.44670000 23.57900000 4.07394000
H 6.69299000 0.31064800 3.20861000
H 5.26105000 22.08890000 2.75677000
O 12.80430000 13.85040000 15.72620000
H 12.01800000 15.15160000 16.71070000
H 12.83850000 14.86150000 14.32130000
    
    &END COORD
  &END SUBSYS
  &DFT
    BASIS_SET_FILE_NAME  BASIS_SET
    POTENTIAL_FILE_NAME  GTH_POTENTIALS
    &QS
      EPS_DEFAULT 1.0E-10
    &END QS
    &MGRID
      NGRIDS 4
      CUTOFF 135
      REL_CUTOFF 115
    &END MGRID
    &XC
      &XC_FUNCTIONAL PADE
      &END XC_FUNCTIONAL
    &END XC
    &SCF
      SCF_GUESS ATOMIC
      EPS_SCF 1.0E-7
      MAX_SCF 300
      &DIAGONALIZATION  ON
        ALGORITHM STANDARD
      &END DIAGONALIZATION
      &MIXING  T
        METHOD BROYDEN_MIXING
        ALPHA 0.4
        NBROYDEN 8
      &END MIXING
    &END SCF
  &END DFT
  &PRINT
    &FORCES ON
    &END FORCES
  &END PRINT
&END FORCE_EVAL
