&GLOBAL
  PROJECT H2O_bulk
  RUN_TYPE ENERGY_FORCE
  PRINT_LEVEL LOW
&END GLOBAL
&FORCE_EVAL
  METHOD Quickstep
  &SUBSYS
    &KIND H
      ELEMENT   H
      BASIS_SET DZVP-GTH-PBE
      POTENTIAL GTH-PBE-q1
    &END KIND
    &KIND O
      ELEMENT   O
      BASIS_SET DZVP-GTH-PBE
      POTENTIAL GTH-PBE-q6
    &END KIND
    &CELL
      A     24.41548 0.0 0.0
      B     0.0 24.41548 0.0
      C     0.0 0.0 24.41548
    &END CELL
    &COORD

O 22.69050000 23.99107300 17.51556000
H 23.09150000 0.19318900 19.07286000
H 21.35920000 22.80037000 17.60336000
O 2.52314000 24.06562000 8.45951000
H 3.39644000 22.61522000 7.34897000
H 0.76734000 24.12882000 7.92187000
O 11.04510000 24.07854900 15.62740000
H 11.20630000 22.05779000 15.76300000
H 9.70511000 0.15636700 16.70230000
O 18.42604000 16.63009000 1.31028000
H 18.95261000 18.08534000 0.51443900
H 16.85644000 17.40256000 1.93320000
O 8.00690000 6.83792000 20.73500000
H 8.75902000 8.03112000 21.76620000
H 9.23815000 6.16482000 19.69700000
O 20.83719000 12.32900000 9.23588000
H 21.11328000 11.50080000 7.64801000
H 22.14538000 13.58510000 9.43501000
O 19.64262000 23.16040000 11.44510000
H 20.22352000 0.17462000 12.48430000
H 19.02472000 23.78580000 9.84889000
O 22.53352000 18.98396000 12.72580000
H 23.33858000 17.96876000 11.47330000
H 21.63565000 20.48206000 11.75160000
O 5.25952000 13.81396000 18.64910000
H 5.99152000 12.79396000 19.85680000
H 6.02412000 15.60446000 18.77040000
O 6.78341000 21.17016000 22.44536000
H 8.57804000 20.22756000 22.65186000
H 5.52256000 20.25886000 23.74606000
O 13.06078000 1.99986000 5.61528000
H 11.58488000 1.33467000 4.57069000
H 13.67258000 3.47855000 4.62849000
O 13.81048000 5.80562000 1.30704000
H 14.21378000 4.77842000 24.17092000
H 15.57077000 6.47802000 1.58874000
O 14.24320000 18.38426000 7.48428000
H 14.27490000 16.57206000 7.82588000
H 12.52890000 18.93896000 7.85298000
O 0.81482000 15.29130000 10.19802000
H 1.95922000 15.44060000 9.00052000
H 1.75722000 14.19220000 11.39252000
O 23.59516900 2.71991000 21.77202000
H 0.11003400 4.09606000 21.64213000
H 24.25389300 1.69568000 23.43058000
O 22.22606000 0.08582000 5.41102000
H 22.92516000 23.85890000 3.71022000
H 20.38456000 24.06760000 5.76412000
O 16.98566000 12.12710000 23.46040000
H 15.95176000 11.48660000 22.04270000
H 17.63016000 13.72910000 23.57870000
O 4.90878000 15.31534000 6.10558000
H 6.17818000 15.11704000 7.17788000
H 4.59718000 13.30594000 6.18928000
O 18.42084000 20.69820000 16.26182000
H 18.38104000 21.35350000 14.63712000
H 19.39574000 19.03170000 16.26762000
O 8.59524000 0.38108000 4.07598000
H 7.72844000 1.25858000 5.47734000
H 7.74444000 0.71258000 2.58176000
O 9.10242000 19.01510000 10.27548000
H 8.82612000 17.11900000 10.70648000
H 9.21792000 19.81250000 11.92048000
O 14.41702000 5.66202000 13.61154000
H 12.85488000 4.43048000 12.80504000
H 16.33268000 4.76560000 13.71724000
O 6.59287000 2.24304000 23.66498900
H 6.11186000 0.56686700 23.01454000
H 7.16099000 3.72453000 22.66447000
O 19.47562000 5.41086000 22.16950000
H 18.98532000 6.31624000 24.02070000
H 21.10152000 4.56544000 21.94240000
O 21.65652000 12.34084000 3.66782000
H 20.41282000 14.16664000 2.97322000
H 23.31951000 12.74554000 3.06662000
O 8.51170000 13.98022000 10.38090000
H 7.12119000 13.87012000 11.68990000
H 10.07280000 12.89322000 10.74850000
O 6.29268000 18.96650000 17.49170000
H 5.36898000 20.02220000 16.54180000
H 6.97608000 19.92760000 19.25480000
O 9.79352000 8.40652000 2.07014000
H 11.23792000 7.36942000 1.59904000
H 8.44662000 7.47042000 2.91714000
O 13.34520000 10.96212000 19.46060000
H 13.95130000 11.79042000 17.89610000
H 13.26340000 9.35972000 19.00480000
O 23.74398100 23.06916000 0.52442000
H 22.23013000 22.30146000 24.34480000
H 0.48285700 21.87626000 0.93892000
O 1.55223000 14.33960000 0.75359500
H 3.35306000 13.32680000 0.63588700
H 0.86139600 14.35870000 23.43183300
O 6.20220000 2.27319000 17.59460000
H 5.19398000 1.05723000 16.71350000
H 5.21980000 3.01133000 18.98930000
O 12.28676000 5.94524000 18.21466000
H 13.38296000 6.16764000 16.46516000
H 13.74686000 5.42974000 18.96396000
O 6.00441000 3.15744000 7.41388000
H 7.11732000 2.82554000 8.71908000
H 4.40219000 1.96934000 7.46038000
O 13.81496000 12.39752000 2.82457000
H 14.80516000 12.51232000 1.44434000
H 12.01836000 11.51272000 2.54325000
O 22.47220000 7.52112000 12.64570000
H 0.24862000 6.97532000 12.60180000
H 22.22520000 8.85872000 11.58310000
O 10.77428000 2.89168000 11.84540000
H 11.55848000 2.19868000 10.28100000
H 10.82538000 1.76058000 13.13820000
O 2.56036000 7.17299000 20.82660000
H 1.49266000 7.95272000 19.88040000
H 4.28866000 7.31611000 20.20620000
O 2.93018000 8.28848000 10.85992000
H 4.31898000 7.02848000 11.28472000
H 3.18858000 8.65038000 8.98102000
O 15.10030000 13.12630000 8.06962000
H 16.70040000 12.56450000 8.21792000
H 14.77220000 12.79440000 6.08992000
O 3.26658000 22.45856000 15.05532000
H 1.63068000 22.20110000 15.51902000
H 3.04558000 23.02367000 13.15292000
O 21.97782000 6.47906000 5.65612000
H 21.41012000 6.39727000 7.43542000
H 21.70822000 4.72444000 5.60822000
O 13.96068000 14.06556000 15.72057000
H 15.71599000 14.59316000 15.52311000
H 13.98978000 12.99696000 14.00958000
O 6.86004000 6.58348000 14.13428000
H 8.22684000 6.18338000 13.11738000
H 6.52144000 4.83388000 15.22584000
O 17.15490000 23.25785000 6.79541000
H 15.98090000 0.40806900 6.22378000
H 16.26110000 21.53603000 6.28501000
O 11.12116000 18.15855000 22.40782000
H 10.75986000 16.39212000 22.05382000
H 12.18276000 18.81318000 23.94322000
O 4.24438000 13.13168000 13.31638000
H 4.63347000 12.94938000 14.86236000
H 3.81929000 11.02648000 12.48388000
O 18.82600000 15.09960000 13.73650000
H 20.18650000 16.51030000 13.01080000
H 18.81900000 14.10450000 12.27680000
O 11.07320000 18.91840000 15.40613000
H 12.32180000 17.36690000 15.64666000
H 9.79711000 18.17340000 16.60865000
O 2.13112000 9.85184000 5.58112000
H 0.39532000 9.44974000 5.25152000
H 2.64052000 9.11224000 3.87132000
O 18.34994000 7.77913000 2.23546000
H 19.82435000 7.57657000 3.41488000
H 18.66858000 9.57251000 1.69594000
O 14.97560000 22.11586000 20.27900000
H 13.48810000 21.20776000 20.44230000
H 15.63220000 21.63196000 18.56240000
O 20.12937000 20.53990000 22.69792000
H 21.02634000 19.68690000 21.13642000
H 18.49946000 20.87460000 22.13192000
O 13.52822000 17.26102000 2.31101000
H 13.83722000 17.75352000 4.07230000
H 13.51572000 15.35192000 2.14954000
O 22.97720000 18.49540000 18.60056000
H 23.48980000 16.67170000 19.11886000
H 23.85130000 18.86260000 16.98126000
O 3.06288000 19.38312000 1.61127000
H 2.41508000 17.69692000 1.16412000
H 3.89428000 19.66242000 3.15714000
O 5.82354000 21.00946000 5.97242000
H 7.22623000 20.38656000 6.87912000
H 6.93137000 22.54826000 5.20672000
O 4.13959000 6.57962000 1.53739000
H 4.33137000 6.79682000 24.26144900
H 4.22824000 4.67462000 1.75758000
O 12.82258000 11.00318000 11.87250000
H 12.70668000 8.99398000 12.01940000
H 13.20168000 11.22338000 9.83461000
O 19.63369000 3.36046000 14.18080000
H 21.09234000 4.63438000 13.74150000
H 20.36252000 2.50440000 15.72540000
O 0.21542000 13.74328000 20.18646000
H 1.79292000 13.58118000 18.98121000
H 23.56620000 12.37818000 19.03116000
O 22.38950000 9.07099000 18.56362000
H 21.50320000 7.69603000 19.64512000
H 22.22500000 8.77757000 16.82222000
O 15.37280000 3.13652000 21.59572000
H 17.13330000 3.67922000 21.34512000
H 15.05150000 1.57482000 21.07202000
O 9.32888000 12.37830000 23.02370000
H 10.57078000 12.20770000 21.87300000
H 9.51438000 10.83260000 24.21620000
    
    &END COORD
  &END SUBSYS
  &DFT
    BASIS_SET_FILE_NAME  BASIS_SET
    POTENTIAL_FILE_NAME  GTH_POTENTIALS
    &QS
      EPS_DEFAULT 1.0E-10
    &END QS
    &MGRID
      NGRIDS 4
      CUTOFF 135
      REL_CUTOFF 115
    &END MGRID
    &XC
      &XC_FUNCTIONAL PADE
      &END XC_FUNCTIONAL
    &END XC
    &SCF
      SCF_GUESS ATOMIC
      EPS_SCF 1.0E-7
      MAX_SCF 300
      &DIAGONALIZATION  ON
        ALGORITHM STANDARD
      &END DIAGONALIZATION
      &MIXING  T
        METHOD BROYDEN_MIXING
        ALPHA 0.4
        NBROYDEN 8
      &END MIXING
    &END SCF
  &END DFT
  &PRINT
    &FORCES ON
    &END FORCES
  &END PRINT
&END FORCE_EVAL
