&GLOBAL
  PROJECT H2O_bulk
  RUN_TYPE ENERGY_FORCE
  PRINT_LEVEL LOW
&END GLOBAL
&FORCE_EVAL
  METHOD Quickstep
  &SUBSYS
    &KIND H
      ELEMENT   H
      BASIS_SET DZVP-GTH-PBE
      POTENTIAL GTH-PBE-q1
    &END KIND
    &KIND O
      ELEMENT   O
      BASIS_SET DZVP-GTH-PBE
      POTENTIAL GTH-PBE-q6
    &END KIND
    &CELL
      A     23.95001 0.0 0.0
      B     0.0 23.95001 0.0
      C     0.0 0.0 23.95001
    &END CELL
    &COORD

O 20.06440000 2.95284000 15.66872000
H 19.49940000 4.04212000 17.15602000
H 19.27290000 1.41861000 15.31552000
O 0.58148000 22.75829000 9.44729000
H 1.94428000 21.84519000 8.68689000
H 23.43949000 22.49719000 8.18296000
O 10.48430000 0.55775500 14.83280000
H 10.48940000 22.63734000 15.09290000
H 9.13759000 1.04123000 15.82420000
O 18.85291000 14.09309000 23.80630200
H 19.49569000 15.32450000 22.54630000
H 17.27267000 15.06711000 0.35405800
O 9.03347000 5.03429000 21.63010000
H 9.89432000 6.23619000 22.24370000
H 10.18860000 4.34269000 20.46880000
O 21.13971000 13.94590000 8.68159000
H 21.46434000 13.18280000 6.72421000
H 22.42686000 15.29780000 8.98317000
O 14.44969000 22.68970000 11.10620000
H 15.83559000 23.44890000 10.25560000
H 14.15859000 20.85990000 10.54170000
O 1.02839000 1.18911000 14.30390000
H 0.61373200 0.05711000 12.86380000
H 23.28341900 1.42601000 15.17620000
O 6.27229000 13.42452000 18.05070000
H 7.57219000 12.16312000 19.26580000
H 6.59249000 14.88052000 18.08020000
O 7.52363000 19.63442000 23.49182000
H 9.15566000 18.88802000 23.21262000
H 6.33293000 18.66662000 0.61311000
O 11.69181000 1.73619000 5.01091000
H 9.98421000 1.75358000 4.46715000
H 12.33021000 3.41886000 4.11130000
O 13.11261000 5.44539000 1.66168000
H 13.17761000 4.55529000 0.01968000
H 14.71420000 6.05549000 2.13368000
O 13.64950000 18.64092000 7.60081000
H 14.65540000 16.84022000 8.15651000
H 11.82500000 18.39912000 8.31851000
O 1.73759000 16.32080000 10.41399000
H 3.35439000 17.37120000 9.69689000
H 2.25349000 15.15980000 11.59279000
O 23.84837300 2.21829000 22.48207000
H 1.56476000 2.69082000 21.57038000
H 23.45134400 0.91865600 23.46882700
O 20.94962000 23.59460000 4.98219000
H 22.49222000 22.95990000 3.76779000
H 19.62392000 22.44630000 4.27889000
O 16.83322000 9.08359000 22.58260000
H 16.46852000 9.04441000 20.79850000
H 17.60612000 10.71460000 22.51660000
O 3.91211000 11.99168000 6.35491000
H 5.54701000 12.52928000 6.36631000
H 3.71441000 11.07008000 4.63111000
O 17.03938000 22.26510000 15.67649000
H 15.53798000 22.49220000 14.28759000
H 17.86918000 20.87510000 14.99259000
O 6.42538000 1.43111000 4.17613000
H 5.12048000 2.42901000 4.95681000
H 5.99288000 1.32321000 2.43762000
O 9.25969000 18.95280000 10.34211000
H 8.78989000 17.29720000 10.21811000
H 9.59129000 19.14030000 12.15521000
O 14.02991000 6.79703000 12.74638000
H 13.31091000 5.26658000 12.20108000
H 15.97412000 6.74870000 12.66868000
O 6.18570000 0.47478500 22.99921100
H 6.79640000 22.52919000 23.02214100
H 7.72528000 1.84380000 22.47448000
O 20.56089000 5.74842000 20.30300000
H 19.41609000 6.86262000 21.36400000
H 21.87719000 4.76015000 21.36420000
O 20.85305000 11.38888000 3.90729000
H 20.50607000 12.84238000 2.53529000
H 22.92175000 11.67468000 3.81529000
O 7.66189000 14.19019000 10.02660000
H 6.64608000 14.52619000 11.70870000
H 9.06054000 12.85769000 10.32120000
O 6.92081000 18.29080000 18.56640000
H 5.54131000 19.18850000 18.31380000
H 7.34691000 18.88410000 20.29000000
O 9.47729000 9.21979000 1.87248000
H 10.46039000 7.69139000 1.58648000
H 7.35359000 9.14809000 2.01828000
O 13.86120000 9.52589000 17.67730000
H 14.37120000 11.38149000 16.78660000
H 13.49290000 8.31329000 16.37890000
O 23.68591900 21.35282000 0.85919000
H 22.80363000 20.37222000 23.76320000
H 1.39291000 20.20962000 1.35389000
O 2.20550000 12.98990000 0.85212500
H 2.92813000 11.41330000 1.01494000
H 2.22928000 13.75510000 22.94996000
O 5.31505000 2.91078000 15.94290000
H 3.52042000 3.25649000 15.65510000
H 5.64535000 4.07223000 17.29920000
O 12.49772000 3.69748000 18.44922000
H 12.30332000 2.48238000 17.05482000
H 13.85372000 3.00888000 19.49202000
O 3.36506000 3.02958000 7.78421000
H 4.77075000 3.60418000 8.96671000
H 2.34186000 1.73468000 8.30391000
O 13.98372000 12.06869000 2.58933000
H 14.84012000 10.79619000 1.65989000
H 12.16402000 11.83539000 2.57376000
O 21.91610000 10.29379000 12.13990000
H 23.57540000 9.77089000 11.34430000
H 21.47830000 11.50899000 11.06920000
O 11.31721000 3.34191000 9.92668000
H 11.70521000 2.76381000 8.11937000
H 12.09891000 2.11841000 11.23140000
O 4.06262000 6.18041000 20.78840000
H 3.69672000 7.69664000 19.50420000
H 6.04082000 5.99353000 21.20440000
O 3.64321000 8.89431000 10.66579000
H 4.79441000 7.57991000 10.66809000
H 3.81991000 10.12651000 8.99029000
O 15.70680000 14.27180000 7.12669000
H 17.60960000 14.51570000 7.33229000
H 15.71050000 13.30770000 5.62379000
O 2.94131000 21.70385000 18.41449000
H 3.54211000 23.23618000 19.59949000
H 2.52731000 22.79049000 16.93219000
O 18.16039000 2.78441000 7.97669000
H 18.40699000 3.93463000 9.51239000
H 19.80089000 2.05898000 7.25579000
O 13.86931000 14.57822000 14.95588000
H 15.71173000 15.55842000 14.48913000
H 12.78511000 14.17342000 13.51961000
O 6.66228000 5.05451000 11.18591000
H 8.42358000 4.81891000 10.49851000
H 6.24548000 3.91431000 12.73241000
O 16.01840000 22.36087000 4.51225000
H 14.87930000 23.87757100 3.94762000
H 14.86550000 21.58931000 5.91367000
O 11.73632000 17.50285000 22.30599000
H 12.02492000 15.98620000 21.45399000
H 12.88952000 17.28561000 23.66579000
O 4.27655000 12.85551000 13.38151000
H 5.12354000 12.46351000 15.07537000
H 3.96200000 11.21271000 12.44311000
O 18.73320000 17.54390000 14.07890000
H 19.11380000 17.52090000 12.63730000
H 20.34070000 17.61220000 15.12760000
O 11.34520000 19.60290000 15.92337000
H 12.31880000 18.06960000 15.52353000
H 10.40130000 19.06030000 17.36729000
O 0.52919000 6.20008000 5.10999000
H 22.99920000 5.61688000 4.45609000
H 1.45149000 5.25078000 5.96079000
O 18.96425000 5.56791000 3.22425000
H 18.57978000 3.83433000 4.04798000
H 19.27925000 6.86569000 4.15636000
O 15.19200000 21.05442000 20.50350000
H 13.88430000 19.91742000 21.14230000
H 15.01550000 21.35592000 18.87950000
O 19.94379000 18.51760000 21.13559000
H 20.85134000 18.40310000 19.47789000
H 18.34192000 19.59220000 21.22699000
O 15.22839000 17.90319000 2.03272000
H 15.95919000 19.68419000 2.65095000
H 14.26359000 17.68589000 3.65249000
O 23.06080000 17.77760000 16.72322000
H 23.78390000 16.06230000 17.07302000
H 0.60349000 18.98840000 17.20852000
O 3.67161000 17.99689000 2.66275000
H 3.44291000 16.26679000 2.69632000
H 4.48691000 18.30969000 4.33718000
O 5.33136000 20.50742000 7.22689000
H 6.43089000 20.24822000 8.56789000
H 5.91619000 22.02802000 6.47539000
O 4.20967000 8.30339000 1.64171000
H 3.57293000 7.76749000 0.17098300
H 2.93123000 8.01549000 3.13430000
O 11.93271000 11.52531000 10.84210000
H 12.16971000 9.62831000 11.31870000
H 13.10811000 12.17401000 9.39790000
O 18.78857000 6.44374000 11.79280000
H 20.10487000 7.71954000 11.67160000
H 19.52826000 5.43545000 13.15440000
O 1.12649000 13.81171000 19.64400000
H 2.93609000 13.44371000 19.21469000
H 0.37799000 11.99331000 19.43337000
O 23.76850000 8.93225000 17.74509000
H 22.22340000 8.45094000 18.73589000
H 23.63370000 8.98036000 15.79209000
O 15.70990000 2.23009000 22.02379000
H 17.17080000 3.15449000 21.23599000
H 16.32910000 0.45839000 21.56349000
O 10.25951000 11.47040000 21.12530000
H 11.42971000 10.77370000 20.08530000
H 10.00511000 10.56230000 22.54080000
    
    &END COORD
  &END SUBSYS
  &DFT
    BASIS_SET_FILE_NAME  BASIS_SET
    POTENTIAL_FILE_NAME  GTH_POTENTIALS
    &QS
      EPS_DEFAULT 1.0E-10
    &END QS
    &MGRID
      NGRIDS 4
      CUTOFF 135
      REL_CUTOFF 115
    &END MGRID
    &XC
      &XC_FUNCTIONAL PADE
      &END XC_FUNCTIONAL
    &END XC
    &SCF
      SCF_GUESS ATOMIC
      EPS_SCF 1.0E-7
      MAX_SCF 300
      &DIAGONALIZATION  ON
        ALGORITHM STANDARD
      &END DIAGONALIZATION
      &MIXING  T
        METHOD BROYDEN_MIXING
        ALPHA 0.4
        NBROYDEN 8
      &END MIXING
    &END SCF
  &END DFT
  &PRINT
    &FORCES ON
    &END FORCES
  &END PRINT
&END FORCE_EVAL
