&GLOBAL
  PROJECT H2O_bulk
  RUN_TYPE ENERGY_FORCE
  PRINT_LEVEL LOW
&END GLOBAL
&FORCE_EVAL
  METHOD Quickstep
  &SUBSYS
    &KIND H
      ELEMENT   H
      BASIS_SET DZVP-GTH-PBE
      POTENTIAL GTH-PBE-q1
    &END KIND
    &KIND O
      ELEMENT   O
      BASIS_SET DZVP-GTH-PBE
      POTENTIAL GTH-PBE-q6
    &END KIND
    &CELL
      A     24.13067 0.0 0.0
      B     0.0 24.13067 0.0
      C     0.0 0.0 24.13067
    &END CELL
    &COORD

O 20.75750000 20.22030000 3.83114000
H 22.16730000 19.47240000 3.71847000
H 19.29540000 18.98030000 3.35930000
O 15.25690000 2.86601000 17.82970000
H 16.03000000 1.59929000 16.87180000
H 16.48440000 3.66259000 18.73930000
O 9.27190000 21.41980000 16.13840000
H 9.40116000 22.70770000 17.03490000
H 10.93960000 20.88440000 16.10120000
O 13.56900000 15.85440000 10.05210000
H 15.00280000 14.52550000 9.52558000
H 13.98970000 17.78440000 9.87997000
O 16.34870000 11.22710000 9.11365000
H 14.85600000 10.52000000 9.64147000
H 16.54800000 10.50770000 7.64651000
O 2.78984000 21.00150000 22.09440000
H 2.51136000 19.42430000 21.19800000
H 4.21104000 20.96020000 23.25050000
O 4.66459000 11.66910000 9.87362000
H 4.64527000 13.48670000 11.24290000
H 4.54249000 10.05340000 10.93720000
O 10.06050000 2.78822000 0.99902800
H 11.25990000 1.93713000 2.10650000
H 8.33434000 3.14783000 1.86344000
O 21.28060000 5.42997000 15.49770000
H 22.21490000 6.58303000 16.73650000
H 22.24590000 3.83541000 15.95830000
O 4.53266000 24.02167000 3.71633000
H 5.46705000 23.52730000 5.48468000
H 4.63468000 22.57220000 2.54279000
O 21.67600000 17.02940000 11.12560000
H 21.24090000 14.93840000 10.94830000
H 23.30100000 16.92980000 11.04660000
O 3.07383000 4.53343000 10.91830000
H 3.58382000 5.36806000 12.45520000
H 3.07956000 2.60917000 11.47580000
O 15.40130000 23.40360000 22.57040000
H 13.73440000 23.86658900 21.97540000
H 16.78980000 0.97063800 22.79100000
O 10.98590000 0.78993800 20.89470000
H 12.24820000 1.58719000 19.69590000
H 10.56930000 1.71055000 22.24220000
O 21.09140000 5.83907000 4.97507000
H 21.01060000 4.04002000 4.91569000
H 21.31410000 6.54977000 6.53238000
O 7.97557000 8.40528000 18.03500000
H 8.47174000 9.85812000 17.18240000
H 9.27976000 7.55632000 17.20510000
O 17.85460000 23.60460000 6.37085000
H 17.21180000 23.00990000 7.83529000
H 19.21980000 22.20170000 5.91094000
O 12.83390000 1.40876000 11.94490000
H 14.20580000 1.35380000 12.56910000
H 11.75570000 2.22620000 12.77010000
O 22.14880000 1.06834000 2.60194000
H 21.52360000 23.41880000 3.27333000
H 23.65595800 0.89376200 2.49314000
O 5.96940000 14.81390000 19.02330000
H 4.92892000 15.85820000 18.92750000
H 5.63691000 14.13390000 20.77530000
O 9.06694000 13.17620000 15.19280000
H 10.17210000 14.06690000 15.92540000
H 7.45265000 13.62340000 16.32060000
O 8.46193000 10.01710000 6.51642000
H 9.47620000 11.43330000 6.02713000
H 7.11730000 10.87830000 7.53955000
O 7.11307000 4.78392000 6.02121000
H 7.51355000 6.56579000 6.45513000
H 5.99901000 4.14563000 7.58787000
O 3.04272000 0.15893900 13.60020000
H 3.50959000 1.19951000 14.97780000
H 4.45562000 23.44180000 13.32840000
O 12.70150000 14.84310000 1.68850000
H 13.16250000 13.06480000 1.61119000
H 12.22560000 15.37930000 23.99402900
O 6.84710000 21.13430000 11.62300000
H 7.09522000 21.98450000 10.26380000
H 8.09738000 21.06390000 13.17900000
O 23.60090000 9.47886000 17.95320000
H 22.92560000 10.82570000 17.19640000
H 23.64400000 10.41520000 19.54610000
O 11.18700000 5.02421000 15.50970000
H 12.84840000 4.74750000 16.04570000
H 11.59290000 6.25776000 14.37800000
O 17.97210000 23.43280000 14.72460000
H 16.78760000 21.76780000 14.62370000
H 19.48790000 22.87780000 15.08350000
O 22.59660000 11.19600000 22.44740000
H 21.03920000 10.88710000 22.22550000
H 23.35110000 9.64747000 23.50300000
O 18.60880000 20.83220000 20.18230000
H 19.11830000 21.98200000 18.80890000
H 17.41180000 21.92200000 21.21860000
O 22.72580000 7.15888000 10.19600000
H 22.06060000 6.77870000 11.66840000
H 0.14120800 6.12776000 10.06330000
O 17.10320000 8.62541000 15.72220000
H 18.39660000 9.76897000 15.58150000
H 18.25950000 7.35280000 15.72990000
O 8.44104000 21.31530000 6.40037000
H 8.80124000 21.75640000 4.85945000
H 7.28831000 19.68760000 6.30706000
O 17.87060000 16.46120000 1.96191000
H 16.33260000 16.24700000 1.33126000
H 19.00050000 15.87460000 0.37206500
O 12.29950000 3.63230000 6.83029000
H 12.34480000 2.26309000 8.16776000
H 10.72320000 4.06420000 6.12553000
O 1.11828000 16.94350000 2.96392000
H 2.50098000 16.31900000 4.03468000
H 0.28638000 15.75010000 2.61749000
O 11.22600000 9.46442000 11.31640000
H 10.20590000 10.37530000 12.39200000
H 10.06360000 8.93969000 9.77526000
O 17.30840000 7.81780000 21.35940000
H 17.21500000 8.46464000 19.59170000
H 16.06620000 8.13575000 22.10290000
O 20.89660000 11.86180000 11.83910000
H 19.16530000 11.16250000 11.02110000
H 22.45620000 10.83010000 10.70580000
O 19.51880000 13.35320000 16.90460000
H 19.82180000 14.27920000 15.39630000
H 17.43890000 14.09860000 17.49560000
O 14.39950000 19.71050000 16.24180000
H 14.47810000 18.11230000 15.44910000
H 15.31390000 19.99900000 17.39300000
O 7.73673000 19.66370000 1.20808000
H 9.09107000 19.11930000 0.20962500
H 7.24684000 18.16610000 2.25688000
O 13.34690000 21.00600000 9.76003000
H 13.31250000 22.57900000 11.17990000
H 11.94620000 21.14060000 8.50133000
O 19.48970000 2.66718000 22.82760000
H 20.32610000 2.09570000 0.36528800
H 19.38540000 4.49702000 22.40050000
O 14.35950000 14.16800000 15.41980000
H 14.71310000 12.82450000 14.34020000
H 14.12720000 14.88380000 13.69110000
O 5.35812000 16.55890000 6.13665000
H 6.70472000 15.65240000 6.35144000
H 4.30495000 15.48290000 7.50671000
O 22.90820000 20.24810000 15.43270000
H 22.12350000 18.96940000 14.10920000
H 0.11625500 21.22240000 14.23410000
O 2.23745000 12.00240000 4.34980000
H 2.60372000 12.20390000 6.15890000
H 3.84595000 13.02260000 3.59309000
O 8.35309000 8.20337000 23.43530000
H 8.72348000 8.25291000 21.57600000
H 7.02480000 6.95723000 23.30860000
O 15.71270000 7.72123000 4.83881000
H 17.50660000 7.33627000 4.29795000
H 14.64360000 6.25631000 5.45679000
O 0.52806800 7.45377000 1.65114000
H 23.23550000 6.89003000 2.78627000
H 1.11531000 8.75512000 2.43648000
O 6.70228000 12.92760000 0.52817000
H 8.39901000 13.36830000 1.29664000
H 7.41074000 11.28270000 0.26742900
O 10.69120000 17.86200000 21.51190000
H 11.49520000 18.75660000 20.12860000
H 9.47715000 17.60910000 20.76080000
O 1.28551000 17.05960000 18.99200000
H 0.46929500 18.35610000 17.86300000
H 0.16839200 16.82370000 20.11070000
O 20.99670000 16.05330000 21.83900000
H 20.68710000 14.25410000 20.60480000
H 20.34780000 17.56720000 21.23470000
O 13.13570000 9.48481000 0.57762600
H 11.72790000 8.74767000 0.47148700
H 13.77590000 8.88231000 2.10306000
O 4.43657000 2.59284000 18.82020000
H 4.54961000 3.45788000 20.61240000
H 5.52360000 1.12136000 19.12480000
O 10.56580000 14.88480000 6.04614000
H 12.07270000 14.96850000 7.25224000
H 11.11140000 15.38600000 4.43203000
O 3.94178000 4.16209000 23.83371800
H 2.31405000 5.19901000 24.04935300
H 4.48204000 2.50507000 0.67783900
O 3.44701000 16.44900000 11.70580000
H 4.52480000 17.68360000 11.90840000
H 2.90979000 15.78910000 13.67150000
O 22.92760000 0.98660700 18.30070000
H 22.21650000 1.37400000 20.06080000
H 0.49131300 1.09679000 18.77560000
O 4.02990000 8.10846000 14.75120000
H 5.35535000 7.44264000 15.69260000
H 2.95431000 8.02355000 16.31470000
O 13.66580000 22.98340000 3.13038000
H 15.20360000 23.04400000 4.60473000
H 14.76230000 23.10390000 1.08643000
    
    &END COORD
  &END SUBSYS
  &DFT
    BASIS_SET_FILE_NAME  BASIS_SET
    POTENTIAL_FILE_NAME  GTH_POTENTIALS
    &QS
      EPS_DEFAULT 1.0E-10
    &END QS
    &MGRID
      NGRIDS 4
      CUTOFF 135
      REL_CUTOFF 115
    &END MGRID
    &XC
      &XC_FUNCTIONAL PADE
      &END XC_FUNCTIONAL
    &END XC
    &SCF
      SCF_GUESS ATOMIC
      EPS_SCF 1.0E-7
      MAX_SCF 300
      &DIAGONALIZATION  ON
        ALGORITHM STANDARD
      &END DIAGONALIZATION
      &MIXING  T
        METHOD BROYDEN_MIXING
        ALPHA 0.4
        NBROYDEN 8
      &END MIXING
    &END SCF
  &END DFT
  &PRINT
    &FORCES ON
    &END FORCES
  &END PRINT
&END FORCE_EVAL
