&GLOBAL
  PROJECT H2O_bulk
  RUN_TYPE ENERGY_FORCE
  PRINT_LEVEL LOW
&END GLOBAL
&FORCE_EVAL
  METHOD Quickstep
  &SUBSYS
    &KIND H
      ELEMENT   H
      BASIS_SET DZVP-GTH-PBE
      POTENTIAL GTH-PBE-q1
    &END KIND
    &KIND O
      ELEMENT   O
      BASIS_SET DZVP-GTH-PBE
      POTENTIAL GTH-PBE-q6
    &END KIND
    &CELL
      A     24.77208 0.0 0.0
      B     0.0 24.77208 0.0
      C     0.0 0.0 24.77208
    &END CELL
    &COORD

O 22.88380000 21.37697000 18.02536000
H 21.45950000 21.82295000 16.81886000
H 23.60340000 19.48313000 17.74636000
O 23.71722000 20.66682000 23.14859000
H 24.52582000 22.50772000 23.18267000
H 23.26142000 20.65652000 21.39161000
O 13.49510000 6.94185000 14.43610000
H 14.53170000 7.67286000 15.96370000
H 13.90860000 5.38030000 14.04440000
O 17.54623000 14.78826000 21.38889000
H 19.08138000 13.86988000 20.80822000
H 17.70522000 15.31827000 23.14466000
O 6.06395000 8.66052000 19.50060000
H 7.42264000 8.98742000 20.76640000
H 6.85318000 9.61472000 18.01720000
O 19.69934000 9.00645000 7.83525000
H 19.53031000 7.53877000 8.94316000
H 18.99175000 8.68810000 6.27983000
O 21.31392000 1.93562000 12.89250000
H 23.22862000 1.68002000 13.03880000
H 20.33482000 0.56552000 11.82070000
O 21.24870000 16.75456000 6.67608000
H 22.18125000 17.20976000 5.12896000
H 19.75828000 15.63076000 6.51763000
O 7.17792000 15.45786000 18.24390000
H 6.16182000 14.98516000 16.51910000
H 7.00792000 14.07686000 19.17730000
O 8.73651000 21.81216000 24.36286000
H 10.52510000 20.96426000 24.44836000
H 7.96723000 20.67666000 0.77198000
O 15.59538000 2.48752000 8.67869000
H 15.11742000 2.61863000 6.71968000
H 14.24428000 1.50683000 9.38803000
O 13.92558000 3.21692000 3.66004000
H 12.03778000 3.72102000 3.94534000
H 14.44098000 2.43782000 2.20764000
O 15.04790000 17.99406000 10.09108000
H 15.89670000 16.38076000 9.81128000
H 14.77210000 18.06376000 11.93898000
O 4.03222000 14.87130000 13.74562000
H 2.46132000 15.58810000 14.31452000
H 3.42372000 13.15330000 13.06632000
O 1.06112000 0.97895500 0.94929500
H 1.39017000 0.71541100 2.72740000
H 2.31603000 2.15494000 0.43951600
O 19.41956000 23.73720000 9.14722000
H 17.88166000 0.31922000 8.89392000
H 18.41686000 22.01940000 9.65532000
O 15.93446000 10.50970000 0.49122000
H 15.35346000 10.59350000 23.78110000
H 14.70576000 11.58770000 1.45302000
O 4.16128000 16.72784000 4.62678000
H 4.45948000 17.38994000 6.49268000
H 4.00738000 15.02774000 4.17888000
O 17.64944000 21.41350000 14.74502000
H 17.08304000 23.12730000 14.30032000
H 16.89264000 21.20890000 16.55722000
O 8.49254000 4.84958000 3.96861000
H 7.68914000 4.48208000 5.53342000
H 8.04734000 3.28788000 2.68381000
O 5.33542000 18.04450000 9.02238000
H 7.33012000 18.41390000 9.28368000
H 4.97202000 16.79890000 10.77358000
O 8.57058000 8.34779000 14.33794000
H 8.59058000 9.12502000 12.80084000
H 10.25428000 7.30845000 14.69514000
O 7.72061000 1.74612000 0.37795400
H 6.27931000 2.61424000 23.80980200
H 7.97755000 24.55810500 24.58171400
O 20.98242000 3.35982000 0.04982000
H 20.47782000 4.84718000 1.00932000
H 22.56262000 2.95439000 1.12712000
O 24.21640700 11.78874000 7.42562000
H 23.14506000 10.26244000 7.74292000
H 22.80192000 13.25374000 7.31142000
O 10.70980000 12.03242000 11.79810000
H 9.28166000 12.58222000 10.50900000
H 12.27040000 11.70382000 10.95110000
O 6.48738000 20.71090000 19.10960000
H 6.44638000 18.95140000 18.86250000
H 7.00348000 20.90230000 20.83840000
O 7.86272000 9.83302000 2.94884000
H 8.16602000 8.18682000 3.70974000
H 5.90742000 9.97192000 2.82884000
O 13.40780000 10.01502000 19.98980000
H 14.40590000 10.60982000 18.43640000
H 13.55100000 8.23762000 20.18360000
O 2.88755000 24.00616000 18.07280000
H 1.15162000 22.92786000 18.34920000
H 4.06552000 22.67076000 18.67570000
O 23.86813800 18.91090000 3.08958000
H 1.00092000 18.63930000 3.14904000
H 23.79683500 19.34360000 1.26204000
O 2.29223000 1.32988000 13.28700000
H 3.03441000 0.07226200 12.53710000
H 2.18658000 0.74340900 14.96970000
O 15.37976000 4.40804000 19.27676000
H 17.27626000 4.59394000 18.73656000
H 15.45786000 3.66444000 21.24406000
O 7.04839000 2.59444000 8.46358000
H 6.47698000 3.89304000 9.78068000
H 5.59277000 1.30134000 8.22068000
O 12.19636000 14.92572000 2.23040000
H 11.83066000 14.33332000 0.48127300
H 11.18336000 16.09012000 3.01485000
O 18.29240000 10.30962000 16.42920000
H 17.70400000 10.83012000 14.53680000
H 18.86330000 8.59542000 16.54350000
O 7.50088000 12.38428000 7.75780000
H 7.86868000 11.69928000 5.99305000
H 6.26878000 11.29948000 8.58241000
O 4.11786000 3.49919000 20.57940000
H 4.66626000 2.26076000 19.65630000
H 5.10976000 4.64013000 19.70050000
O 3.28428000 10.67388000 10.97312000
H 3.13128000 8.61518000 11.30772000
H 1.76378000 10.75288000 9.84412000
O 15.84810000 13.81140000 6.54162000
H 15.29110000 11.98590000 7.09762000
H 14.53290000 14.26390000 5.32862000
O 3.68638000 23.28888000 8.85802000
H 4.42468000 21.75335000 8.62112000
H 2.33528000 23.38203000 7.52932000
O 18.23292000 5.55082000 11.15332000
H 17.19032000 4.03754000 10.25222000
H 19.69752000 4.57899000 11.87432000
O 14.63598000 18.60956000 18.39071000
H 15.87753000 17.15116000 19.41282000
H 13.51368000 17.57206000 17.55094000
O 4.99994000 5.42648000 12.16848000
H 6.27244000 6.07598000 13.38888000
H 4.05914000 3.81968000 13.07148000
O 11.25520000 0.09034900 10.43600000
H 10.80710000 24.65695300 12.22390000
H 9.86860000 1.30913000 10.00080000
O 14.12716000 21.10309000 23.27442000
H 14.05846000 20.45694000 21.56192000
H 15.47516000 20.15106000 24.39482000
O 11.69110000 16.75665000 15.29915000
H 10.10540000 17.03564000 16.24075000
H 11.63580000 15.18246000 14.86040000
O 21.93760000 18.11140000 12.13890000
H 20.63890000 19.09460000 12.99990000
H 21.48070000 18.03190000 10.61700000
O 10.62280000 22.63200000 15.49930000
H 9.34292000 22.43780000 16.68400000
H 11.22400000 21.00600000 15.04300000
O 23.96220000 23.44042000 6.00772000
H 22.40620000 23.70202000 6.94162000
H 23.21340000 21.75232000 5.37002000
O 18.10018000 6.65188000 3.06469000
H 16.94980000 7.89399000 2.24133000
H 16.26821000 6.15484000 3.43097000
O 14.66710000 1.27328000 15.07960000
H 12.81430000 0.61228000 15.08210000
H 14.69060000 2.05348000 16.47290000
O 23.79258200 16.27370000 16.07522000
H 23.56260000 14.69830000 17.12442000
H 23.42886000 15.90460000 14.20632000
O 16.79532000 18.23712000 2.11358000
H 18.05142000 18.05392000 3.73669000
H 15.42892000 17.32202000 2.23518000
O 22.00380000 12.75970000 19.16026000
H 23.09250000 11.21690000 19.74216000
H 20.95600000 12.12000000 17.84396000
O 8.86678000 18.43832000 3.84733000
H 7.35408000 17.53292000 4.07980000
H 9.11478000 18.90402000 5.67200000
O 10.30880000 19.69566000 8.52542000
H 11.92760000 18.97256000 8.81172000
H 9.92778000 21.09486000 9.49302000
O 2.62555000 11.71982000 2.96765000
H 1.21306000 11.29742000 3.90588000
H 2.24032000 11.00312000 1.44509000
O 15.79373000 11.09668000 11.82030000
H 15.17634000 9.56298000 12.44380000
H 17.46025000 11.32618000 10.73640000
O 19.97473000 5.33343000 17.34800000
H 21.40415000 5.93294000 18.63750000
H 21.01603000 4.31763000 15.90650000
O 1.30082000 9.82158000 21.35148000
H 0.28742000 8.11618000 20.95166000
H 2.51702000 9.93058000 19.95876000
O 23.77390000 5.19416000 20.82102000
H 22.88510000 4.37517000 22.25622000
H 0.75402000 4.79044000 20.99142000
O 16.37080000 0.99052000 24.70872000
H 18.26680000 0.72732000 24.53862000
H 16.14560000 23.96490000 23.86352000
O 9.42068000 12.07780000 22.71760000
H 10.70828000 11.09720000 22.17060000
H 9.06288000 11.25730000 24.33670000
    
    &END COORD
  &END SUBSYS
  &DFT
    BASIS_SET_FILE_NAME  BASIS_SET
    POTENTIAL_FILE_NAME  GTH_POTENTIALS
    &QS
      EPS_DEFAULT 1.0E-10
    &END QS
    &MGRID
      NGRIDS 4
      CUTOFF 135
      REL_CUTOFF 115
    &END MGRID
    &XC
      &XC_FUNCTIONAL PADE
      &END XC_FUNCTIONAL
    &END XC
    &SCF
      SCF_GUESS ATOMIC
      EPS_SCF 1.0E-7
      MAX_SCF 300
      &DIAGONALIZATION  ON
        ALGORITHM STANDARD
      &END DIAGONALIZATION
      &MIXING  T
        METHOD BROYDEN_MIXING
        ALPHA 0.4
        NBROYDEN 8
      &END MIXING
    &END SCF
  &END DFT
  &PRINT
    &FORCES ON
    &END FORCES
  &END PRINT
&END FORCE_EVAL
