&GLOBAL
  PROJECT H2O_bulk
  RUN_TYPE ENERGY_FORCE
  PRINT_LEVEL LOW
&END GLOBAL
&FORCE_EVAL
  METHOD Quickstep
  &SUBSYS
    &KIND H
      ELEMENT   H
      BASIS_SET DZVP-GTH-PBE
      POTENTIAL GTH-PBE-q1
    &END KIND
    &KIND O
      ELEMENT   O
      BASIS_SET DZVP-GTH-PBE
      POTENTIAL GTH-PBE-q6
    &END KIND
    &CELL
      A     24.47592 0.0 0.0
      B     0.0 24.47592 0.0
      C     0.0 0.0 24.47592
    &END CELL
    &COORD

O 20.45930000 2.84152000 16.95574000
H 21.22680000 2.73622000 18.47174000
H 18.97290000 1.83672000 16.89354000
O 22.77408000 19.38218000 11.55930000
H 24.03228000 18.23598000 10.89570000
H 22.28998000 20.40318000 10.12760000
O 8.83969000 1.37468000 16.28940000
H 9.49388000 24.22797300 15.61020000
H 7.13748000 1.45251000 15.78660000
O 19.07180000 14.81703000 24.47015200
H 19.49463000 16.39982000 24.02559800
H 20.20883000 14.03392000 1.42644000
O 6.64439000 7.52858000 20.34630000
H 6.94089000 9.24178000 19.25920000
H 8.01905000 6.39108000 19.75280000
O 23.05054000 13.31150000 8.42508000
H 22.26060000 13.18460000 6.66353000
H 0.02691300 14.39930000 8.80040000
O 12.57428000 22.67600000 12.92520000
H 13.17768000 23.38420000 11.40270000
H 11.76438000 20.97830000 12.91040000
O 24.09351400 0.29812000 12.96760000
H 23.73169200 23.08084000 12.72810000
H 22.76271000 0.93722000 13.85300000
O 7.79548000 12.46234000 17.46780000
H 9.52848000 12.60074000 17.21610000
H 7.49018000 14.01234000 17.35790000
O 6.47180000 21.13904000 22.64994000
H 7.97206000 20.52684000 23.06934000
H 5.29502000 20.66824000 24.00594000
O 13.11592000 3.09551000 4.63583000
H 11.17022000 2.79799000 4.19779000
H 13.91512000 3.02403000 3.04471000
O 14.06202000 11.87948000 23.92008000
H 14.96680000 10.27268000 23.64018000
H 12.74132000 11.51318000 0.49066000
O 14.65320000 19.06634000 7.11692000
H 15.74910000 17.74094000 7.88072000
H 13.39480000 18.32734000 6.05222000
O 2.68808000 15.59200000 10.34698000
H 3.99168000 16.96750000 10.42178000
H 3.19468000 14.19110000 11.84368000
O 23.69358800 2.44355000 22.72989000
H 1.14097000 3.00395000 22.39636000
H 23.93374600 1.06475000 23.82772200
O 21.64274000 22.92770000 7.41798000
H 22.04154000 22.67630000 5.68098000
H 19.79214000 23.10980000 7.83518000
O 19.02414000 10.51360000 21.47960000
H 17.89084000 10.11440000 20.25230000
H 18.57424000 11.67350000 22.89190000
O 9.85752000 12.25146000 2.57012000
H 10.51472000 11.98046000 4.40872000
H 8.79452000 11.16426000 1.83962000
O 16.21996000 23.91660000 16.55798000
H 14.66156000 23.25460000 15.54398000
H 17.44126000 22.82350000 15.76338000
O 7.98556000 2.26442000 5.43666000
H 7.28346000 3.18292000 7.21273000
H 6.43106000 2.38562000 4.32501000
O 7.55288000 17.63200000 10.21192000
H 7.79878000 16.11120000 9.25662000
H 8.80868000 17.41700000 11.65212000
O 16.12910000 8.43131000 12.59206000
H 15.43220000 7.10950000 11.80646000
H 17.80815000 7.57851000 12.97816000
O 4.89357000 1.57857000 22.55456000
H 5.67130000 24.39904700 22.48324000
H 6.48431000 2.79655000 22.17805000
O 19.79308000 5.48067000 23.61390000
H 19.23068000 7.18668000 23.22620000
H 21.40348000 4.80107000 22.89390000
O 22.28938000 12.15686000 2.78368000
H 21.74508000 10.22906000 2.88778000
H 23.74794900 12.43766000 2.03008000
O 9.43317000 12.92898000 8.23292000
H 8.29806000 11.53618000 9.24701000
H 10.91320000 13.74568000 9.12800000
O 6.74212000 17.99060000 18.14520000
H 5.25632000 18.29120000 17.36560000
H 6.58412000 18.79470000 20.09250000
O 5.77938000 9.14898000 1.19196000
H 6.28658000 9.00978000 23.82388000
H 5.75748000 7.64848000 1.90546000
O 14.98970000 8.76778000 18.26660000
H 15.35600000 8.91078000 16.20310000
H 14.15070000 10.08938000 18.56020000
O 23.08692000 22.04574000 2.09118000
H 22.01891000 21.02534000 1.15278000
H 24.42810200 20.93224000 2.11748000
O 2.44445000 13.23050000 1.26317000
H 3.87718000 11.97900000 1.18517000
H 2.02584000 13.15420000 24.06001700
O 3.89500000 2.71643000 14.29610000
H 2.16694000 2.28065000 13.05470000
H 3.35008000 3.87936000 15.85020000
O 9.95064000 3.84426000 20.80424000
H 9.97594000 2.46096000 19.45554000
H 11.44414000 3.27926000 21.86764000
O 2.83795000 23.91628000 8.82972000
H 3.83600000 23.49448000 7.17732000
H 1.16625000 23.46248000 8.68672000
O 16.17634000 11.11298000 4.86838000
H 16.13164000 11.73028000 3.20198000
H 17.32034000 9.55008000 4.93696000
O 23.73430000 10.01378000 12.66020000
H 0.96338000 10.42918000 13.20400000
H 23.45170000 11.33878000 11.16790000
O 13.25232000 4.15752000 10.16450000
H 13.09522000 4.65502000 8.31607000
H 14.34002000 2.95042000 10.00170000
O 2.16244000 5.06466000 19.16050000
H 1.30114000 6.70015000 19.15950000
H 3.93704000 5.76899000 19.54320000
O 5.67382000 8.76542000 9.46978000
H 6.32522000 6.92302000 9.73528000
H 4.76322000 8.87192000 7.90208000
O 17.69200000 15.23300000 7.70548000
H 19.54160000 14.83170000 8.04078000
H 17.41000000 13.94020000 6.49058000
O 3.03832000 22.05913000 17.39478000
H 3.50332000 23.41863000 18.38208000
H 2.39362000 23.16052000 15.83838000
O 21.72398000 3.91568000 7.88998000
H 21.39848000 4.75647000 9.49068000
H 21.40278000 2.29292000 8.52438000
O 14.97463000 15.90784000 15.64236000
H 16.57030000 16.86794000 15.38461000
H 14.69124000 14.65994000 14.32942000
O 7.72936000 4.37762000 10.66802000
H 9.53446000 4.01552000 10.68672000
H 6.85906000 3.34472000 11.88422000
O 16.26370000 23.71516800 7.91710000
H 15.51610000 0.17978300 6.42789000
H 15.42180000 21.73247000 7.42828000
O 11.01694000 18.63108000 23.03718000
H 11.62284000 16.73291000 22.55098000
H 11.67184000 18.65557000 0.31666000
O 4.24767000 11.57322000 13.39472000
H 5.01436000 10.82872000 14.88787000
H 4.48728000 10.45522000 12.04552000
O 18.87870000 19.43890000 15.47780000
H 20.16960000 19.34130000 13.89940000
H 20.08220000 19.09170000 16.71880000
O 10.34730000 18.20420000 14.24922000
H 11.66980000 17.29820000 14.54401000
H 9.72105000 18.49330000 16.03558000
O 2.17328000 4.51306000 6.25418000
H 0.38168000 4.31166000 6.59718000
H 2.71688000 3.01676000 6.98088000
O 20.12987000 7.38269000 4.12147000
H 20.37109000 6.26670000 5.43491000
H 20.43661000 6.22150000 2.69907000
O 15.75550000 22.64214000 21.30740000
H 14.24350000 21.71964000 21.77870000
H 15.98590000 22.49364000 19.36430000
O 19.95788000 19.36190000 22.92748000
H 21.00519000 19.34370000 21.51448000
H 18.68495000 20.69380000 22.42488000
O 10.20198000 17.45788000 3.73792000
H 8.70528000 18.68358000 4.29581000
H 9.73278000 15.87608000 3.36109000
O 23.12540000 19.21410000 18.83494000
H 24.13440000 17.97630000 19.53294000
H 0.36948000 20.39910000 18.39064000
O 2.68032000 18.45218000 1.89592000
H 2.21612000 16.74018000 1.42530000
H 3.46782000 18.34758000 3.37842000
O 6.63599000 20.97994000 5.94128000
H 6.72028000 20.01924000 7.51258000
H 8.10862000 22.24284000 5.89988000
O 4.89241000 4.57658000 2.06674000
H 4.42362000 3.35928000 0.76774100
H 3.32305000 4.54338000 3.21767000
O 14.23022000 12.90232000 11.53750000
H 14.47062000 10.93272000 12.04280000
H 15.67658000 13.59052000 10.80450000
O 20.82736000 6.20547000 13.27120000
H 22.32301000 7.08844000 12.87510000
H 20.96811000 5.01583000 14.59300000
O 24.06650000 14.34152000 21.56992000
H 23.91800000 12.83792000 20.23337000
H 22.68750000 13.82502000 22.66307000
O 23.46850000 10.09600000 18.36598000
H 21.96540000 10.25670000 19.72138000
H 22.84350000 10.59360000 16.82928000
O 14.88470000 2.93738000 23.54938000
H 16.43450000 3.91168000 23.50758000
H 15.35810000 1.06868000 23.14648000
O 12.87602000 13.75950000 19.34330000
H 14.57980000 14.56790000 18.71520000
H 13.50712000 13.12370000 20.90860000
    
    &END COORD
  &END SUBSYS
  &DFT
    BASIS_SET_FILE_NAME  BASIS_SET
    POTENTIAL_FILE_NAME  GTH_POTENTIALS
    &QS
      EPS_DEFAULT 1.0E-10
    &END QS
    &MGRID
      NGRIDS 4
      CUTOFF 135
      REL_CUTOFF 115
    &END MGRID
    &XC
      &XC_FUNCTIONAL PADE
      &END XC_FUNCTIONAL
    &END XC
    &SCF
      SCF_GUESS ATOMIC
      EPS_SCF 1.0E-7
      MAX_SCF 300
      &DIAGONALIZATION  ON
        ALGORITHM STANDARD
      &END DIAGONALIZATION
      &MIXING  T
        METHOD BROYDEN_MIXING
        ALPHA 0.4
        NBROYDEN 8
      &END MIXING
    &END SCF
  &END DFT
  &PRINT
    &FORCES ON
    &END FORCES
  &END PRINT
&END FORCE_EVAL
