&GLOBAL
  PROJECT H2O_bulk
  RUN_TYPE ENERGY_FORCE
  PRINT_LEVEL LOW
&END GLOBAL
&FORCE_EVAL
  METHOD Quickstep
  &SUBSYS
    &KIND H
      ELEMENT   H
      BASIS_SET DZVP-GTH-PBE
      POTENTIAL GTH-PBE-q1
    &END KIND
    &KIND O
      ELEMENT   O
      BASIS_SET DZVP-GTH-PBE
      POTENTIAL GTH-PBE-q6
    &END KIND
    &CELL
      A     24.63644 0.0 0.0
      B     0.0 24.63644 0.0
      C     0.0 0.0 24.63644
    &END CELL
    &COORD

O 1.34736000 24.25333900 13.42308000
H 24.22600000 23.38251000 13.30048000
H 2.69526000 23.00436000 12.42548000
O 2.89232000 0.71722000 0.20438800
H 4.00962000 1.84372000 23.98214400
H 2.13612000 23.81676000 24.24243700
O 13.29690000 0.71804300 17.50960000
H 13.23820000 1.82231000 18.91460000
H 14.08770000 23.84549800 18.49540000
O 21.17355000 12.68394000 22.15800000
H 22.57808000 11.41624000 22.27184000
H 21.83761000 14.39554000 22.60639000
O 5.96215000 11.40346000 17.19830000
H 6.52880000 9.95956000 18.64580000
H 6.14374000 10.72296000 15.83140000
O 16.95831000 11.11430000 7.63296000
H 15.95599000 12.41830000 7.70707000
H 16.76869000 10.32860000 6.04004000
O 19.55266000 5.08146000 13.92730000
H 21.36796000 5.02446000 13.14450000
H 19.17406000 3.25516000 13.72120000
O 2.04638000 13.46388000 7.75716000
H 2.42371000 11.78988000 7.17315000
H 2.62817000 13.60868000 9.58633000
O 10.12916000 14.53928000 15.01920000
H 8.74826000 13.42458000 15.47710000
H 11.35946000 13.46828000 14.33590000
O 11.37190000 20.37008000 23.54448000
H 12.56580000 19.39448000 24.32008000
H 10.00470000 19.90768000 24.59598000
O 11.38714000 4.68314000 9.04680000
H 12.63874000 6.03197000 9.84935000
H 9.54984000 5.19311000 9.51163000
O 15.14516000 3.72626000 0.97052000
H 13.70564000 3.14316000 1.43482000
H 16.17527000 2.51666000 1.99322000
O 10.24040000 18.00828000 6.30054000
H 9.35979000 17.42228000 4.91824000
H 8.89619000 18.32538000 7.43564000
O 2.43666000 14.09860000 13.25046000
H 0.73216000 13.29730000 13.23576000
H 3.33316000 13.21600000 14.60546000
O 2.48851000 1.58993000 5.02450000
H 3.52081000 0.97042100 6.50708000
H 2.98497000 1.13288000 3.36848000
O 14.48708000 0.84856000 9.10956000
H 15.85398000 1.74756000 8.04606000
H 13.26208000 2.22406000 9.92726000
O 15.56988000 13.05130000 21.90650000
H 14.59918000 11.59830000 21.09350000
H 17.45508000 12.74040000 21.59040000
O 2.60484000 15.56582000 2.81254000
H 2.30744000 15.56142000 4.52224000
H 1.76854000 14.58862000 1.50714000
O 21.10952000 21.85140000 13.43806000
H 19.87612000 23.11890000 13.39866000
H 21.09082000 20.67320000 14.97576000
O 10.49332000 12.24404000 24.10134200
H 9.20332000 11.04484000 23.64718500
H 12.13562000 11.57424000 22.85207000
O 3.99396000 20.30930000 11.27694000
H 5.27306000 18.99210000 11.56204000
H 2.22856000 19.10790000 11.19014000
O 8.88204000 5.62650000 16.21082000
H 9.30314000 3.89005000 16.00902000
H 7.08984000 5.60770000 15.78812000
O 10.59110000 0.86091000 1.17146000
H 10.40830000 0.55996500 2.74892000
H 10.34030000 23.89942500 0.37454900
O 18.83616000 2.52178000 7.56586000
H 20.09266000 3.79965000 8.02576000
H 19.10886000 1.88864000 5.91796000
O 21.70876000 13.47732000 9.17796000
H 20.21995000 12.52262000 8.60726000
H 23.25129000 13.35152000 8.27276000
O 4.81090000 9.07646000 12.76610000
H 5.99193000 9.48076000 11.35510000
H 2.89655000 9.57636000 12.16870000
O 11.01044000 18.06160000 18.65670000
H 10.76224000 16.34590000 17.66270000
H 10.94174000 17.64280000 20.69760000
O 3.47876000 10.38586000 0.64372000
H 3.56156000 9.97046000 2.52192000
H 1.80416000 9.81716000 0.20442000
O 6.91400000 3.32096000 23.11990000
H 7.66996000 3.60956000 21.26940000
H 8.16745000 2.64326000 24.08610000
O 4.64971000 24.19008000 18.09260000
H 3.48845000 24.04608000 16.50820000
H 6.33436000 24.13648000 17.48330000
O 0.56201000 20.61690000 0.49238300
H 1.37101000 19.06450000 1.27752000
H 24.40677800 21.28760000 1.95406000
O 0.36700100 4.84004000 12.42000000
H 0.48600200 5.06657000 10.62400000
H 0.59649300 3.00791000 12.37930000
O 12.78798000 4.21082000 21.03728000
H 13.50178000 6.01302000 20.59168000
H 13.77118000 3.75892000 22.32498000
O 8.51691000 7.33982000 4.78924000
H 9.34596000 5.94872000 5.73874000
H 9.88986000 7.68702000 3.63284000
O 8.01118000 16.56346000 1.72321000
H 8.70978000 15.02666000 1.34812000
H 6.36578000 16.14566000 1.93974000
O 14.04540000 8.81776000 18.88290000
H 15.77020000 9.02376000 18.13240000
H 13.25440000 9.03726000 17.32080000
O 8.80214000 10.55354000 9.61130000
H 9.53034000 12.14624000 9.19218000
H 8.26104000 9.96294000 7.94396000
O 3.44898000 4.76820000 17.83440000
H 4.04798000 2.89565000 17.89760000
H 2.92358000 4.92467000 16.09610000
O 3.53474000 9.04854000 5.59736000
H 5.27604000 8.65054000 5.95076000
H 2.36764000 7.57044000 5.73276000
O 15.11600000 16.68450000 1.41886000
H 15.07000000 15.45580000 2.89006000
H 14.34000000 15.36660000 0.33686000
O 6.10704000 0.03084600 8.78246000
H 7.66134000 0.31749200 8.03776000
H 5.88204000 23.11272000 9.88696000
O 15.46036000 7.69332000 10.92786000
H 16.94386000 7.23166000 11.87256000
H 15.92626000 9.16408000 10.12036000
O 20.53190000 18.11188000 17.08721000
H 21.64053000 18.11978000 18.56089000
H 20.98521000 16.58408000 16.21145000
O 6.35382000 5.04894000 9.79074000
H 5.45132000 6.07384000 10.91914000
H 5.88602000 3.20274000 10.00124000
O 9.28090000 22.74986000 15.31990000
H 10.58100000 23.74915600 16.81280000
H 9.20029000 21.00051000 16.40090000
O 17.59868000 21.31852000 23.95706000
H 16.43848000 21.28498000 22.63006000
H 16.70078000 20.24594000 0.27832000
O 11.75100000 9.18324000 14.41364000
H 10.49990000 7.75774000 14.45874000
H 13.15070000 8.82264000 12.99264000
O 23.41630000 19.18770000 9.60794000
H 22.70120000 19.90350000 10.85840000
H 22.97690000 17.48540000 9.48486000
O 15.26350000 20.78200000 18.76837000
H 13.70640000 20.09490000 18.35609000
H 16.57550000 20.28980000 17.30503000
O 23.15490000 22.57436000 5.35116000
H 22.86800000 21.93336000 7.07636000
H 0.16106000 23.84906000 5.47866000
O 16.49720000 9.14585000 2.26301000
H 15.63530000 10.17850000 1.09099000
H 15.98093000 7.37555000 1.63757000
O 17.23410000 0.70864000 13.39850000
H 15.59780000 0.68264000 11.96530000
H 16.19040000 1.27164000 15.00390000
O 21.82137000 12.50110000 13.98206000
H 20.90316000 11.25590000 14.82936000
H 21.51043000 12.26670000 12.00066000
O 21.72716000 18.23546000 22.00839000
H 22.86766000 19.11776000 22.96130000
H 20.48916000 19.36476000 22.62934000
O 0.17206000 7.86845000 21.58228000
H 1.40326000 7.17760000 20.41768000
H 24.04050000 6.43417000 22.12008000
O 10.68404000 23.65796000 6.14820000
H 12.02594000 23.85546000 7.42423000
H 10.02294000 21.69446000 5.87863000
O 8.95332000 18.30798000 11.98066000
H 8.81006000 17.00478000 13.34376000
H 9.53949000 19.72228000 12.78166000
O 23.67321200 5.40136000 6.86823000
H 24.61451000 4.16166000 5.99708000
H 22.88571000 6.56736000 5.60673000
O 14.44564000 15.54705000 8.02515000
H 12.62724000 16.22157000 7.45424000
H 14.50594000 15.99421000 9.88569000
O 18.96394000 7.62738000 18.28720000
H 20.36955000 8.55272000 18.28300000
H 19.34969000 6.15852000 16.77490000
O 21.90910000 8.30024000 2.27842000
H 22.03310000 6.72894000 1.76898000
H 19.77400000 8.77334000 2.32618000
O 22.80020000 4.08274000 0.03282000
H 21.69920000 2.66249000 0.51752000
H 24.41250000 3.32944000 0.35932000
O 19.40750000 0.16186000 2.47672000
H 20.59210000 23.69180000 3.27482000
H 18.24070000 23.97640000 1.28072000
O 6.89644000 8.93297000 22.63310000
H 6.79994000 6.90897000 23.08980000
H 5.34294000 9.37915000 23.57850000
    
    &END COORD
  &END SUBSYS
  &DFT
    BASIS_SET_FILE_NAME  BASIS_SET
    POTENTIAL_FILE_NAME  GTH_POTENTIALS
    &QS
      EPS_DEFAULT 1.0E-10
    &END QS
    &MGRID
      NGRIDS 4
      CUTOFF 135
      REL_CUTOFF 115
    &END MGRID
    &XC
      &XC_FUNCTIONAL PADE
      &END XC_FUNCTIONAL
    &END XC
    &SCF
      SCF_GUESS ATOMIC
      EPS_SCF 1.0E-7
      MAX_SCF 300
      &DIAGONALIZATION  ON
        ALGORITHM STANDARD
      &END DIAGONALIZATION
      &MIXING  T
        METHOD BROYDEN_MIXING
        ALPHA 0.4
        NBROYDEN 8
      &END MIXING
    &END SCF
  &END DFT
  &PRINT
    &FORCES ON
    &END FORCES
  &END PRINT
&END FORCE_EVAL
