&GLOBAL
  PROJECT H2O_bulk
  RUN_TYPE ENERGY_FORCE
  PRINT_LEVEL LOW
&END GLOBAL
&FORCE_EVAL
  METHOD Quickstep
  &SUBSYS
    &KIND H
      ELEMENT   H
      BASIS_SET DZVP-GTH-PBE
      POTENTIAL GTH-PBE-q1
    &END KIND
    &KIND O
      ELEMENT   O
      BASIS_SET DZVP-GTH-PBE
      POTENTIAL GTH-PBE-q6
    &END KIND
    &CELL
      A     24.31058 0.0 0.0
      B     0.0 24.31058 0.0
      C     0.0 0.0 24.31058
    &END CELL
    &COORD

O 23.65370000 20.10149000 19.45426000
H 22.14430000 20.63252000 18.78726000
H 0.31792000 18.89785000 18.35726000
O 22.22932000 21.01452000 0.27954400
H 22.30742000 22.79672000 0.51530700
H 23.05962000 20.66032000 23.14061000
O 11.59900000 2.23816000 14.70970000
H 12.59060000 2.73105000 16.09470000
H 11.04400000 0.35981600 15.06310000
O 20.48933000 13.98838000 22.55106000
H 20.10244000 13.71528000 20.77351000
H 19.59761000 15.57469000 23.04758000
O 4.98359000 8.35752000 19.24010000
H 6.34326000 8.71052000 20.73530000
H 5.96827000 7.76882000 17.78140000
O 20.00859000 11.51100000 7.51968000
H 19.51501000 9.59673000 7.24015000
H 21.21155000 11.37370000 5.90239000
O 21.02442000 0.49992000 13.84080000
H 22.59432000 1.32562000 13.86380000
H 20.64102000 0.41342000 11.99000000
O 0.01153700 19.28136000 9.18084000
H 24.14530600 18.79136000 7.39874000
H 22.58787000 20.60156000 9.22924000
O 6.61512000 14.24516000 21.66900000
H 6.97492000 16.02126000 21.83940000
H 7.69322000 13.37396000 22.83060000
O 9.21736000 19.69956000 22.68036000
H 10.97400000 19.57076000 22.50696000
H 9.48109000 18.84476000 24.21986000
O 14.16988000 3.82110000 7.15497000
H 13.31618000 2.95720000 5.62473000
H 14.58170000 2.20227000 8.19998000
O 11.27288000 0.79032000 3.17524000
H 9.80778000 1.76492000 3.35494000
H 12.13978000 1.03562000 1.95984000
O 15.45520000 19.69436000 10.77378000
H 15.79430000 18.21826000 9.79528000
H 14.95700000 19.38966000 12.52968000
O 5.72542000 14.98640000 12.78242000
H 5.03232000 13.33100000 12.48682000
H 7.21662000 15.03130000 13.70822000
O 23.02948000 2.38133000 1.02008000
H 23.14157000 3.06486000 2.65705000
H 24.30836700 3.15660000 24.04756900
O 20.87106000 23.11300000 9.23142000
H 21.60376000 0.15852000 7.91842000
H 19.48576000 22.25550000 8.37802000
O 15.99016000 10.98690000 0.64722000
H 14.74376000 10.91730000 23.50720000
H 17.65866000 11.91400000 23.89300000
O 4.62848000 15.07804000 3.34388000
H 5.11838000 13.69124000 4.74748000
H 3.87138000 14.18364000 1.96888000
O 19.09314000 20.99620000 17.02702000
H 19.81784000 21.92810000 15.64572000
H 17.46814000 20.61280000 16.35112000
O 6.96384000 3.07978000 2.94890000
H 5.42644000 2.82808000 4.38358000
H 6.29434000 2.23328000 1.43019000
O 8.25532000 19.41970000 10.27798000
H 9.52692000 19.38990000 9.13998000
H 7.54272000 17.53240000 10.40178000
O 8.10878000 7.42576000 14.35454000
H 9.03618000 8.71450000 13.52634000
H 9.11178000 5.93510000 14.94024000
O 5.44319000 23.56754300 23.87667300
H 5.26367000 22.62680000 22.05423000
H 7.03476000 22.94381000 24.13829600
O 18.22822000 4.25643000 24.20250000
H 18.01622000 5.11637000 1.52442000
H 19.54952000 3.05897000 0.11412000
O 22.99800000 12.47344000 2.90412000
H 22.71015000 12.60674000 1.11052000
H 23.75510900 13.93004000 3.52372000
O 11.02920000 14.12102000 9.12898000
H 10.50800000 13.91002000 7.46196000
H 12.70880000 14.79692000 8.34413000
O 6.26438000 20.40880000 18.61310000
H 5.22248000 18.83740000 18.29120000
H 7.65238000 20.04910000 19.88320000
O 6.27872000 8.54002000 2.40804000
H 6.38302000 6.58542000 2.72864000
H 4.74442000 9.04422000 1.35534000
O 13.32770000 9.63482000 20.53570000
H 13.45140000 10.91872000 18.75790000
H 13.58650000 8.02022000 19.96510000
O 2.52921000 0.23938000 18.99800000
H 1.26496000 23.36126000 19.52290000
H 4.48987000 24.24196000 18.70360000
O 0.35011400 17.47870000 4.31661000
H 2.25477000 16.78720000 3.81525000
H 24.18864300 18.53090000 2.76062000
O 1.90328000 1.34899000 14.09890000
H 2.44729000 24.00272500 13.20280000
H 1.92536000 0.98538500 16.10880000
O 14.16706000 5.01854000 18.59036000
H 15.63056000 4.92564000 17.76316000
H 14.24826000 3.69664000 20.23366000
O 4.43978000 2.24954000 7.44828000
H 4.70919000 3.96274000 8.68188000
H 4.62373000 0.68104000 8.62818000
O 14.58226000 15.65492000 2.93251000
H 15.09496000 13.99542000 2.32855000
H 12.80896000 15.84352000 2.60508000
O 19.27370000 12.68532000 13.87720000
H 20.63640000 13.75562000 13.22500000
H 19.11240000 11.73222000 12.33120000
O 6.30968000 11.62838000 6.41935000
H 6.42868000 10.22578000 5.12675000
H 5.57058000 11.10148000 7.99010000
O 1.55766000 4.97281000 21.07360000
H 2.19276000 3.39462000 20.20560000
H 2.81256000 6.12147000 20.14290000
O 2.59138000 10.77448000 10.43472000
H 2.99378000 9.23048000 11.15462000
H 1.08828000 11.66148000 10.87192000
O 16.36050000 15.55080000 7.61562000
H 17.52980000 14.28200000 8.08432000
H 15.58040000 15.29280000 5.85402000
O 3.61728000 22.21964000 10.66162000
H 5.06778000 21.12071000 10.83512000
H 2.49658000 20.93392000 10.08942000
O 16.92962000 7.52057000 11.38672000
H 15.93092000 6.20979000 10.68152000
H 17.71572000 6.44749000 12.84922000
O 14.42885000 13.64146000 16.10518000
H 15.90920000 13.78786000 15.14739000
H 13.50678000 12.76806000 14.72770000
O 4.06074000 5.90978000 11.33728000
H 5.55514000 6.27218000 12.19008000
H 3.45454000 4.36818000 12.17868000
O 15.75520000 1.05363000 11.31060000
H 14.52050000 1.84474000 12.63420000
H 15.56690000 23.39638100 11.46620000
O 14.21496000 20.85580000 21.22832000
H 14.35136000 20.76388000 19.60822000
H 15.24146000 20.10120000 22.46522000
O 9.02930000 13.66488000 16.66192000
H 7.77578000 13.56728000 18.51392000
H 10.67240000 13.81198000 17.11011000
O 23.20440000 15.34780000 12.78150000
H 23.90030000 15.71620000 14.32760000
H 23.43000000 16.70680000 11.62020000
O 9.41119000 21.72840000 14.90104000
H 8.63188000 20.93830000 16.28007000
H 8.69181000 20.76480000 13.41548000
O 23.03650000 2.98734000 6.86622000
H 0.49772000 2.48914000 7.58312000
H 22.13130000 4.51154000 7.63722000
O 17.71228000 6.64954000 4.64873000
H 17.51229000 8.13271000 3.90654000
H 16.03271000 5.80624000 5.28151000
O 14.00790000 18.97616000 16.25910000
H 12.21350000 19.69426000 15.88730000
H 13.87080000 17.15486000 16.50460000
O 2.70293000 17.14480000 16.78332000
H 2.90835000 15.36240000 17.75892000
H 3.37567000 16.59830000 15.11252000
O 17.79612000 18.66082000 23.99229700
H 19.32122000 19.66592000 24.28612000
H 16.71492000 18.08362000 1.45705000
O 21.55820000 11.47520000 18.35626000
H 20.52690000 9.97618000 19.12776000
H 20.55120000 12.07170000 16.75356000
O 9.31408000 16.92942000 2.81723000
H 7.65288000 16.13532000 2.42744000
H 9.26978000 17.80012000 4.42411000
O 11.73280000 20.82156000 6.66862000
H 12.98770000 21.03916000 8.06552000
H 11.37940000 21.94156000 5.30192000
O 3.06216000 11.30612000 23.99434200
H 1.47399000 11.07462000 0.29945100
H 3.10038000 12.34122000 22.35124000
O 11.65358000 10.40598000 12.64350000
H 13.05068000 9.50228000 12.14470000
H 11.48498000 11.72998000 11.09170000
O 18.51040000 4.57446000 15.79220000
H 19.58407000 5.03429000 17.05390000
H 19.10797000 3.21423000 15.02060000
O 2.17392000 12.57318000 18.72295000
H 0.24672000 12.19638000 18.52608000
H 3.31602000 11.04568000 18.43165000
O 21.33490000 6.41147000 20.05722000
H 20.81440000 6.49238000 21.67332000
H 22.84610000 5.35921000 20.54182000
O 14.21090000 1.81482000 22.66082000
H 15.44810000 3.09092000 23.09772000
H 15.04330000 0.19382000 21.99712000
O 8.97548000 9.98321000 22.90670000
H 10.76348000 9.82673000 22.25710000
H 8.40438000 9.05231000 0.13852000
    
    &END COORD
  &END SUBSYS
  &DFT
    BASIS_SET_FILE_NAME  BASIS_SET
    POTENTIAL_FILE_NAME  GTH_POTENTIALS
    &QS
      EPS_DEFAULT 1.0E-10
    &END QS
    &MGRID
      NGRIDS 4
      CUTOFF 135
      REL_CUTOFF 115
    &END MGRID
    &XC
      &XC_FUNCTIONAL PADE
      &END XC_FUNCTIONAL
    &END XC
    &SCF
      SCF_GUESS ATOMIC
      EPS_SCF 1.0E-7
      MAX_SCF 300
      &DIAGONALIZATION  ON
        ALGORITHM STANDARD
      &END DIAGONALIZATION
      &MIXING  T
        METHOD BROYDEN_MIXING
        ALPHA 0.4
        NBROYDEN 8
      &END MIXING
    &END SCF
  &END DFT
  &PRINT
    &FORCES ON
    &END FORCES
  &END PRINT
&END FORCE_EVAL
