&GLOBAL
  PROJECT H2O_bulk
  RUN_TYPE ENERGY_FORCE
  PRINT_LEVEL LOW
&END GLOBAL
&FORCE_EVAL
  METHOD Quickstep
  &SUBSYS
    &KIND H
      ELEMENT   H
      BASIS_SET DZVP-GTH-PBE
      POTENTIAL GTH-PBE-q1
    &END KIND
    &KIND O
      ELEMENT   O
      BASIS_SET DZVP-GTH-PBE
      POTENTIAL GTH-PBE-q6
    &END KIND
    &CELL
      A     24.28872 0.0 0.0
      B     0.0 24.28872 0.0
      C     0.0 0.0 24.28872
    &END CELL
    &COORD

O 23.00860000 18.88517000 20.13874000
H 21.90100000 20.06182000 19.05144000
H 23.68160000 17.29458000 19.44284000
O 23.56488000 20.94858000 0.74071200
H 0.18226000 22.70408000 1.30760000
H 23.88648000 20.58738000 23.13850000
O 11.32930000 5.85414000 14.57740000
H 11.87880000 5.42551000 16.37100000
H 10.94920000 4.21438000 13.77090000
O 18.07835000 13.69342000 19.66295000
H 18.95527000 12.86482000 18.36304000
H 18.91151000 15.25836000 20.61648000
O 5.64040000 6.79398000 19.79500000
H 6.42719000 7.94208000 21.01420000
H 6.03007000 7.45088000 18.02500000
O 18.44967000 10.47720000 5.75800000
H 18.26507000 9.36851000 7.32614000
H 17.80643000 9.65414000 4.27103000
O 21.01748000 24.21600000 13.47420000
H 22.53278000 0.02928000 13.43820000
H 20.64228000 24.11290000 11.56480000
O 24.07709300 20.68914000 8.09022000
H 0.23857100 19.90294000 6.33117000
H 22.61239000 21.95384000 7.14071000
O 6.29388000 15.45414000 20.21940000
H 4.47028000 14.90794000 19.64240000
H 7.04828000 14.19234000 21.38930000
O 10.52590000 22.27074000 23.20724000
H 12.30850000 22.19024000 22.48394000
H 10.86440000 21.32684000 0.53422000
O 16.12175000 2.82617000 8.31220000
H 15.30526000 3.51510000 6.48349000
H 14.74401000 3.00864000 9.52707000
O 13.04912000 3.58518000 2.98306000
H 11.46882000 3.37658000 3.14416000
H 13.13102000 2.62488000 1.55686000
O 15.18220000 19.26704000 10.23302000
H 16.07540000 17.89874000 9.06812000
H 14.99030000 18.36934000 12.06432000
O 2.52188000 14.78140000 13.50048000
H 1.03848000 15.83370000 13.21868000
H 2.41038000 14.04600000 12.00248000
O 0.60383800 2.55133000 2.37518000
H 0.51141100 3.75477000 3.85942000
H 1.97743000 3.33254000 1.43917000
O 19.12864000 22.60600000 8.58398000
H 18.09954000 23.90540000 8.01738000
H 18.16854000 21.40540000 9.83908000
O 14.94524000 11.83320000 23.42630000
H 13.90134000 11.61810000 21.75610000
H 16.58424000 12.60880000 22.57650000
O 6.01112000 15.23846000 3.56852000
H 6.70882000 14.33386000 4.96912000
H 5.22912000 13.93996000 2.76922000
O 19.73076000 19.76700000 15.31438000
H 19.95736000 21.58060000 15.04168000
H 17.95406000 19.59340000 14.89748000
O 7.42686000 3.85342000 4.32796000
H 6.74826000 3.25192000 5.89630000
H 6.95336000 3.05892000 2.85609000
O 6.51608000 17.79900000 12.05342000
H 7.27018000 17.19280000 10.71882000
H 5.14388000 16.41310000 12.44902000
O 6.54252000 7.74059000 14.31216000
H 6.60202000 9.35995000 14.38586000
H 8.51072000 7.49082000 14.34886000
O 5.84835000 1.31253000 0.11440900
H 5.09356000 1.90195000 22.87748000
H 7.34752000 0.04589800 24.26517600
O 19.37658000 3.59820000 0.93648000
H 18.33878000 5.12310000 1.94418000
H 20.93898000 3.54001000 1.98258000
O 23.61636800 11.78426000 5.59278000
H 21.94579000 11.02166000 5.55388000
H 24.15081800 13.49966000 5.39538000
O 10.77560000 14.32378000 10.96410000
H 9.82077000 13.27408000 9.95798000
H 12.70260000 14.10268000 11.43790000
O 7.15952000 20.54890000 19.73980000
H 6.91402000 18.56360000 19.99300000
H 8.36112000 20.92150000 21.05610000
O 7.37768000 8.99078000 3.36526000
H 7.14548000 7.09318000 3.76026000
H 5.24838000 9.05658000 2.94086000
O 12.19820000 9.80408000 19.45140000
H 12.72870000 10.78178000 17.87360000
H 13.35600000 8.23698000 19.53620000
O 2.74158000 22.35894000 18.68640000
H 1.43400000 21.17834000 19.13100000
H 4.47627000 21.86624000 19.17870000
O 0.85875100 17.39480000 4.52842000
H 2.78081000 16.92420000 4.37987000
H 0.31720800 17.90070000 2.89670000
O 1.61490000 0.59513200 13.88000000
H 2.57732000 23.65833000 13.33850000
H 1.64149000 0.24283200 15.68070000
O 14.33684000 4.71416000 19.32654000
H 16.17994000 5.08366000 19.27264000
H 13.97554000 3.13866000 20.37754000
O 5.93043000 2.55516000 9.21982000
H 4.91634000 4.37136000 9.84732000
H 5.02014000 1.20646000 9.98662000
O 14.27984000 15.79128000 2.31686000
H 13.70484000 14.75398000 0.99794600
H 12.91424000 16.91408000 2.68586000
O 20.41800000 12.67278000 10.85530000
H 20.80180000 14.51518000 11.41050000
H 21.38660000 12.34198000 9.72836000
O 7.81972000 11.71582000 7.35199000
H 7.83502000 10.36872000 5.71816000
H 6.32792000 11.17272000 8.05762000
O 2.20184000 2.95358000 20.75240000
H 2.14954000 1.42367000 19.55460000
H 3.33884000 4.27417000 20.06090000
O 2.42062000 10.84912000 10.03568000
H 2.53272000 9.34442000 10.50418000
H 1.45572000 10.89512000 8.39298000
O 16.85990000 15.85620000 6.87968000
H 17.62650000 14.31990000 7.22628000
H 16.17070000 15.39550000 5.31978000
O 4.25352000 21.93391000 10.92178000
H 4.47082000 20.21551000 11.26868000
H 2.80972000 21.63945000 9.81008000
O 19.09338000 6.94421000 10.19018000
H 18.21228000 5.49165000 9.82028000
H 19.04428000 6.57769000 11.99468000
O 13.87102000 13.72034000 16.35346000
H 15.49207000 13.82954000 17.85833000
H 14.56987000 13.26794000 14.77600000
O 2.38526000 5.50872000 12.22262000
H 4.05386000 5.82202000 13.61752000
H 1.76356000 3.97082000 13.08472000
O 10.79730000 2.03451000 11.28690000
H 10.38120000 0.50300800 11.90010000
H 9.09674000 2.32520000 10.46430000
O 14.51314000 20.64186000 20.52798000
H 14.57964000 20.39176000 19.07568000
H 15.41154000 19.42069000 21.35208000
O 8.19213000 12.67492000 15.57583000
H 7.77973000 13.96452000 16.54506000
H 9.08517000 13.60822000 14.25062000
O 22.71300000 17.29420000 11.98550000
H 21.37810000 18.30620000 13.16360000
H 23.33610000 18.52550000 10.49610000
O 9.24668000 21.30930000 14.38843000
H 8.31975000 21.43380000 16.05212000
H 7.92352000 20.56310000 13.36602000
O 23.65140000 5.77706000 6.53088000
H 0.41838000 5.12946000 7.54018000
H 22.39820000 6.09776000 7.64738000
O 16.09301000 7.37839000 2.17259000
H 15.42249000 8.60353000 0.91702000
H 14.54057000 6.00604000 2.58126000
O 13.92740000 19.04064000 15.45850000
H 12.52460000 19.86904000 15.16170000
H 14.04150000 17.34194000 15.93410000
O 1.24805000 14.40650000 19.18048000
H 1.36134000 12.71230000 19.56768000
H 1.68836000 14.59440000 17.43218000
O 17.99718000 18.08018000 23.19069000
H 19.55888000 19.20618000 23.61545900
H 17.04158000 17.58638000 0.30907600
O 20.13630000 10.72420000 15.81634000
H 19.99760000 8.87893000 15.36314000
H 20.51260000 11.76170000 14.38154000
O 9.19352000 19.47718000 2.80505000
H 8.12902000 17.75258000 2.72643000
H 9.02572000 20.21708000 4.44366000
O 10.29110000 20.46194000 7.83838000
H 11.70850000 20.08224000 8.88818000
H 9.26237000 21.39634000 8.98798000
O 3.34863000 10.98408000 1.48164000
H 1.89415000 11.00388000 2.56626000
H 2.71253000 10.57658000 24.09342500
O 15.50106000 11.70012000 12.08620000
H 14.93894000 10.23862000 11.35590000
H 16.93628000 12.24352000 11.12360000
O 19.27026000 4.89022000 16.07760000
H 20.52869000 5.18791000 17.32130000
H 19.87669000 3.46256000 15.31310000
O 1.20258000 9.30372000 20.78362000
H 23.95420000 8.78262000 20.28890000
H 2.59248000 7.81192000 20.07771000
O 21.63380000 5.23926000 20.44858000
H 20.67560000 4.62837000 21.73078000
H 23.08910000 4.56640000 21.02448000
O 15.46170000 0.79318000 23.04018000
H 16.88150000 1.22728000 24.19258000
H 15.70430000 23.65010000 21.72358000
O 8.20232000 10.52520000 22.40150000
H 9.62022000 10.50850000 21.13630000
H 8.57372000 10.39200000 24.07090000
    
    &END COORD
  &END SUBSYS
  &DFT
    BASIS_SET_FILE_NAME  BASIS_SET
    POTENTIAL_FILE_NAME  GTH_POTENTIALS
    &QS
      EPS_DEFAULT 1.0E-10
    &END QS
    &MGRID
      NGRIDS 4
      CUTOFF 135
      REL_CUTOFF 115
    &END MGRID
    &XC
      &XC_FUNCTIONAL PADE
      &END XC_FUNCTIONAL
    &END XC
    &SCF
      SCF_GUESS ATOMIC
      EPS_SCF 1.0E-7
      MAX_SCF 300
      &DIAGONALIZATION  ON
        ALGORITHM STANDARD
      &END DIAGONALIZATION
      &MIXING  T
        METHOD BROYDEN_MIXING
        ALPHA 0.4
        NBROYDEN 8
      &END MIXING
    &END SCF
  &END DFT
  &PRINT
    &FORCES ON
    &END FORCES
  &END PRINT
&END FORCE_EVAL
