&GLOBAL
  PROJECT H2O_bulk
  RUN_TYPE ENERGY_FORCE
  PRINT_LEVEL LOW
&END GLOBAL
&FORCE_EVAL
  METHOD Quickstep
  &SUBSYS
    &KIND H
      ELEMENT   H
      BASIS_SET DZVP-GTH-PBE
      POTENTIAL GTH-PBE-q1
    &END KIND
    &KIND O
      ELEMENT   O
      BASIS_SET DZVP-GTH-PBE
      POTENTIAL GTH-PBE-q6
    &END KIND
    &CELL
      A     25.27966 0.0 0.0
      B     0.0 25.27966 0.0
      C     0.0 0.0 25.27966
    &END CELL
    &COORD

O 21.77670000 18.98920000 8.41772000
H 22.84600000 18.54710000 6.68054000
H 20.51920000 17.94610000 8.16615000
O 15.26900000 23.74560000 17.64510000
H 15.59740000 0.22500200 17.56880000
H 14.06380000 23.84570000 18.87840000
O 19.04290000 19.71380000 19.36640000
H 19.64130000 19.58370000 17.58030000
H 18.30730000 21.34770000 19.28870000
O 8.90201000 20.76790000 11.87220000
H 8.37166000 21.01080000 13.81510000
H 8.74281000 19.03610000 11.24080000
O 15.76430000 10.33340000 8.53599000
H 14.67330000 10.65380000 10.14670000
H 16.30970000 11.56950000 7.53996000
O 3.13208000 23.17330000 18.48670000
H 3.66105000 23.58640000 16.75730000
H 1.38502000 22.85870000 18.09850000
O 8.31882000 15.29990000 10.18420000
H 8.73809000 16.97940000 9.55242000
H 6.95810000 15.50100000 9.66439000
O 11.34220000 1.12608000 22.05250000
H 12.42460000 1.55733000 23.46840000
H 10.08920000 0.01654000 22.88390000
O 22.06910000 2.81374000 12.27020000
H 23.07290000 3.91220000 13.83510000
H 23.27490000 2.00110000 11.52080000
O 1.73432000 22.57470000 2.88457000
H 2.50314000 22.55800000 4.12847000
H 1.71382000 24.41260000 2.97043000
O 21.74760000 18.28110000 13.52100000
H 21.00610000 16.70820000 13.58930000
H 22.06300000 19.08120000 11.85690000
O 5.15081000 7.38851000 9.44471000
H 6.86038000 7.47456000 9.11743000
H 4.69007000 5.63428000 9.88888000
O 18.59800000 23.72080000 24.62420000
H 19.24240000 23.58680000 22.82270000
H 20.20330000 23.90880000 0.94679500
O 9.73731000 4.15855000 17.68780000
H 10.51140000 4.22465000 16.10200000
H 10.62230000 3.40985000 18.92600000
O 20.48900000 2.37678000 6.55230000
H 20.77850000 0.73170300 5.86619000
H 19.31420000 1.93502000 7.96587000
O 3.37766000 10.32120000 21.16130000
H 2.96479000 9.22678000 22.70390000
H 3.28646000 9.10320000 19.68400000
O 16.15280000 16.75610000 12.39740000
H 16.03540000 18.27960000 12.11640000
H 16.01030000 16.09640000 10.60800000
O 14.02300000 2.47757000 9.51399000
H 12.88750000 1.65583000 10.10280000
H 13.13600000 4.12737000 10.75610000
O 21.35910000 22.75470000 3.85697000
H 21.01620000 22.12070000 5.26837000
H 23.21250000 21.87260000 3.46557000
O 9.11974000 20.92900000 21.41720000
H 7.83308000 20.64050000 22.91440000
H 10.90610000 21.16640000 21.57240000
O 9.81623000 14.29940000 19.57140000
H 11.50310000 13.39530000 19.40730000
H 10.65570000 16.03310000 19.41650000
O 9.86648000 9.84055000 6.84928000
H 11.33350000 9.07586000 7.56563000
H 10.63440000 11.38630000 5.25582000
O 6.20151000 4.64962000 4.31904000
H 7.93662000 4.26796000 4.59586000
H 5.40004000 5.08571000 5.74775000
O 4.93760000 4.29114000 14.09250000
H 3.37623000 5.23585000 14.15930000
H 5.88820000 4.42197000 15.55760000
O 16.02470000 14.70050000 2.30119000
H 15.74400000 13.21690000 1.24921000
H 16.65210000 15.72850000 1.31145000
O 14.36290000 21.96350000 11.86720000
H 14.46540000 23.20080000 13.15790000
H 13.26520000 21.02850000 11.14610000
O 0.20899800 7.11476000 16.66660000
H 0.39204300 8.33679000 15.30640000
H 24.09780000 8.11644000 19.23890000
O 13.22830000 6.35462000 13.64140000
H 15.06750000 6.30612000 14.15620000
H 11.99230000 7.58468000 14.38590000
O 19.29980000 1.91069000 17.34500000
H 20.88790000 3.13046000 18.56080000
H 19.77380000 2.86701000 15.45460000
O 21.86980000 8.77770000 25.17043700
H 20.43890000 9.97404000 25.01430000
H 21.16740000 7.79212000 1.18434000
O 23.22510000 23.43210000 16.32960000
H 22.19990000 24.57460000 16.56700000
H 22.61920000 22.44430000 15.03490000
O 0.69187400 10.00470000 7.55223000
H 2.38509000 9.07988000 7.86283000
H 0.79644500 11.25760000 6.61004000
O 15.32330000 7.31113000 19.58260000
H 16.40670000 7.28675000 18.07390000
H 15.65490000 6.49997000 21.33820000
O 1.93794000 19.41000000 14.35270000
H 2.70165000 19.14030000 16.12700000
H 0.51165600 18.66360000 14.51430000
O 20.15080000 14.42240000 5.55920000
H 18.79960000 14.52060000 4.24351000
H 21.49070000 13.87360000 5.21723000
O 10.21210000 1.48912000 5.52512000
H 11.67550000 1.58844000 6.15588000
H 8.96226000 1.05408000 6.71598000
O 3.21103000 19.61700000 22.35050000
H 2.55678000 19.67450000 24.13000000
H 3.60659000 21.25260000 22.14120000
O 10.19810000 11.05410000 12.58200000
H 9.59809000 12.82600000 12.99790000
H 8.61965000 10.80490000 11.28470000
O 17.62700000 11.45170000 22.97070000
H 18.50110000 12.77670000 22.39030000
H 18.10030000 10.18070000 21.98210000
O 20.64240000 8.41918000 11.01750000
H 19.10950000 8.35124000 10.40530000
H 21.71260000 8.46003000 9.66898000
O 18.96010000 9.32093000 15.89830000
H 19.49140000 10.31000000 14.40780000
H 18.79290000 10.93640000 16.85740000
O 20.18000000 13.87240000 19.60530000
H 18.81180000 14.44380000 18.95850000
H 21.87060000 14.93070000 19.20340000
O 11.38430000 23.36600000 1.68833000
H 11.28510000 24.27451000 3.06894000
H 10.32490000 22.02180000 2.31426000
O 6.57706000 24.14270000 8.14874000
H 7.14563000 23.64850000 10.38250000
H 4.88432000 25.14210000 8.20349000
O 15.67320000 3.32272000 25.11730000
H 15.25040000 2.63119000 1.44738000
H 16.78970000 2.20240000 24.21100000
O 14.78550000 13.53920000 16.82420000
H 15.39510000 11.76440000 16.24580000
H 14.71660000 15.12870000 16.28490000
O 2.89641000 18.28320000 8.45980000
H 2.70328000 19.98200000 9.27450000
H 2.28679000 17.29580000 9.59461000
O 1.67540000 25.17762000 11.48460000
H 1.60337000 23.69920000 12.62250000
H 3.11774000 0.49124900 12.35490000
O 0.70814600 13.22300000 2.47735000
H 2.18064000 14.10940000 1.69511000
H 25.02610000 11.71580000 1.02622000
O 4.84943000 15.00250000 24.43420000
H 4.90192000 13.81270000 23.52170000
H 4.85444000 16.34720000 23.22390000
O 16.05170000 5.58000000 4.69474000
H 17.87340000 5.25610000 4.40925000
H 16.36980000 5.15212000 6.12446000
O 23.95680000 5.88226000 3.85045000
H 23.73170000 4.83832000 5.18232000
H 24.92770000 7.56408000 4.59470000
O 7.71450000 18.18840000 2.61351000
H 9.19485000 17.74190000 3.07084000
H 6.42368000 16.54470000 2.23493000
O 15.14250000 19.58110000 23.98010000
H 15.63380000 19.63930000 21.78980000
H 16.87360000 20.79940000 24.83840000
O 0.11396000 12.55550000 14.02020000
H 1.92748000 12.36440000 14.34970000
H 25.03680000 13.89160000 13.24920000
O 0.39765800 15.97660000 19.30280000
H 0.69657800 14.34500000 18.64370000
H 1.65671000 16.09660000 20.34940000
O 12.26580000 10.19470000 1.44381000
H 13.28680000 11.00100000 0.69873500
H 12.88500000 8.44816000 1.27630000
O 3.73882000 3.58015000 21.33700000
H 4.13263000 3.68050000 22.88610000
H 3.55197000 1.82113000 20.97880000
O 13.31160000 16.43580000 6.81516000
H 14.49300000 17.87370000 6.51979000
H 12.89030000 15.14290000 5.43789000
O 2.36208000 2.61039000 1.60273000
H 2.34568000 4.28247000 1.11619000
H 3.98115000 2.83482000 2.13204000
O 8.04153000 24.48600000 16.89110000
H 9.41573000 0.54173400 17.79780000
H 7.81146000 23.72480000 18.28070000
O 23.63960000 5.37626000 21.16710000
H 22.64540000 5.30572000 22.77190000
H 25.13204200 4.27628000 21.06520000
O 5.74268000 15.45430000 15.09030000
H 5.83884000 14.07640000 16.42860000
H 7.37975000 15.39930000 14.20430000
O 14.44370000 20.70590000 5.60791000
H 14.86050000 21.81140000 6.66115000
H 15.37010000 21.72420000 4.53051000
    
    &END COORD
  &END SUBSYS
  &DFT
    BASIS_SET_FILE_NAME  BASIS_SET
    POTENTIAL_FILE_NAME  GTH_POTENTIALS
    &QS
      EPS_DEFAULT 1.0E-10
    &END QS
    &MGRID
      NGRIDS 4
      CUTOFF 135
      REL_CUTOFF 115
    &END MGRID
    &XC
      &XC_FUNCTIONAL PADE
      &END XC_FUNCTIONAL
    &END XC
    &SCF
      SCF_GUESS ATOMIC
      EPS_SCF 1.0E-7
      MAX_SCF 300
      &DIAGONALIZATION  ON
        ALGORITHM STANDARD
      &END DIAGONALIZATION
      &MIXING  T
        METHOD BROYDEN_MIXING
        ALPHA 0.4
        NBROYDEN 8
      &END MIXING
    &END SCF
  &END DFT
  &PRINT
    &FORCES ON
    &END FORCES
  &END PRINT
&END FORCE_EVAL
