&GLOBAL
  PROJECT H2O_bulk
  RUN_TYPE ENERGY_FORCE
  PRINT_LEVEL LOW
&END GLOBAL
&FORCE_EVAL
  METHOD Quickstep
  &SUBSYS
    &KIND H
      ELEMENT   H
      BASIS_SET DZVP-GTH-PBE
      POTENTIAL GTH-PBE-q1
    &END KIND
    &KIND O
      ELEMENT   O
      BASIS_SET DZVP-GTH-PBE
      POTENTIAL GTH-PBE-q6
    &END KIND
    &CELL
      A     24.77707 0.0 0.0
      B     0.0 24.77707 0.0
      C     0.0 0.0 24.77707
    &END CELL
    &COORD

O 1.70733000 21.60139000 14.33954000
H 0.10323000 21.82808000 14.61874000
H 1.90493000 20.43759000 12.88224000
O 1.01646000 23.17103000 23.62478000
H 1.70356000 24.37953000 0.02956000
H 2.29486000 23.01113000 22.36293000
O 14.27370000 2.11529000 16.75120000
H 14.88280000 2.85602000 18.39780000
H 13.12440000 0.53036300 17.24390000
O 20.18974000 12.62827000 23.46439000
H 21.40938000 12.06277000 22.07026000
H 19.57681000 14.41817000 23.52689000
O 5.67304000 8.25503000 19.46240000
H 7.05121000 9.62143000 19.92110000
H 6.88092000 6.87873000 18.64270000
O 18.62515000 10.89030000 7.72237000
H 17.88945000 12.59020000 8.16986000
H 17.33091000 9.60547000 7.00074000
O 20.78383000 3.96003000 13.60690000
H 22.57553000 3.44553000 13.62540000
H 19.82203000 2.43073000 12.91260000
O 0.73280000 16.07114000 6.96899000
H 2.10658000 16.22474000 8.40169000
H 24.67713600 17.79964000 6.96767000
O 7.98973000 15.10144000 18.13520000
H 6.37423000 14.37814000 17.51800000
H 8.29383000 13.59264000 19.58210000
O 8.69173000 21.96714000 23.83654000
H 10.48640000 21.85654000 24.43764000
H 7.81433000 21.46634000 0.66307000
O 9.57467000 3.66628000 8.88431000
H 10.57337000 3.90108000 7.19480000
H 10.46197000 4.10386000 10.42220000
O 11.61047000 4.93603000 4.26266000
H 9.98637000 4.78303000 3.41006000
H 12.51807000 3.67643000 3.41376000
O 11.45560000 15.23174000 9.73707000
H 11.11250000 13.85394000 8.62117000
H 11.40730000 14.45004000 11.38777000
O 3.55943000 14.20730000 14.54333000
H 1.67643000 13.59040000 14.83053000
H 4.25353000 12.61390000 14.28323000
O 0.43640600 3.94864000 2.11426000
H 1.58168000 2.78892000 2.94319000
H 0.88868200 5.88433000 1.90918000
O 19.13184000 23.15810000 6.10173000
H 19.37384000 0.00093000 5.31213000
H 17.67984000 22.57510000 5.21013000
O 15.50904000 13.17010000 1.07873000
H 14.44224000 12.93980000 24.31970000
H 17.17854000 13.35440000 0.44003000
O 3.13277000 15.69976000 2.42247000
H 2.58107000 15.44836000 4.07547000
H 3.01707000 14.06036000 1.39057000
O 21.41386000 22.61880000 15.59623000
H 20.13636000 23.32280000 14.50633000
H 20.49616000 21.93610000 16.81603000
O 6.80326000 5.03877000 3.08722000
H 5.67086000 5.35037000 4.54529000
H 6.23756000 3.68277000 1.97875000
O 3.68863000 18.22120000 11.08717000
H 5.26533000 18.92840000 10.42667000
H 4.09043000 16.79730000 12.59367000
O 11.67667000 5.03541000 13.75456000
H 12.20727000 6.63415000 14.22586000
H 12.79227000 4.19164000 14.98426000
O 5.62008000 1.74110000 24.28159800
H 5.26178000 2.20938000 22.39161000
H 6.85685000 0.24673200 24.39683200
O 20.34663000 2.96289000 3.36943000
H 19.67923000 4.62546000 4.18413000
H 22.19323000 3.55266000 3.10343000
O 24.10233300 11.10926000 5.93703000
H 22.11847000 10.88766000 6.09223000
H 24.42613900 12.61306000 6.34373000
O 10.78760000 11.69283000 14.49270000
H 9.41399000 10.62393000 13.71250000
H 9.92838000 13.06613000 15.52960000
O 8.79347000 19.90760000 18.62990000
H 8.25007000 18.17560000 18.47540000
H 8.72757000 20.65350000 20.34560000
O 7.89893000 9.94173000 1.81506000
H 7.38003000 8.37283000 2.45136000
H 6.53053000 10.62803000 1.51036000
O 14.68240000 10.00353000 20.39090000
H 15.29350000 10.58293000 18.63370000
H 15.21890000 8.33743000 20.38930000
O 3.71780000 22.37144000 19.20350000
H 2.67597000 22.21364000 17.87050000
H 5.24619000 21.07064000 19.02550000
O 24.06735400 19.04160000 1.03243000
H 0.44863600 17.58930000 1.27864000
H 0.28250600 20.31810000 24.73287700
O 0.81069700 2.21992000 12.37790000
H 1.64859000 2.25323000 10.78890000
H 1.12832000 0.43589000 12.96780000
O 15.26874000 4.78396000 21.10744000
H 17.00174000 5.16736000 20.52354000
H 15.18084000 3.67786000 22.66254000
O 4.21113000 3.82726000 8.44897000
H 6.10639000 3.86176000 9.18147000
H 4.61915000 2.49046000 6.99377000
O 10.24734000 10.98913000 6.84306000
H 11.81934000 10.25503000 6.32981000
H 9.11064000 11.10773000 5.40004000
O 16.08140000 11.62093000 15.35880000
H 17.38770000 10.72903000 14.72890000
H 14.46070000 11.35553000 14.59090000
O 6.88297000 10.16627000 11.32380000
H 8.01607000 10.57687000 9.65840000
H 5.14577000 9.85277000 10.64530000
O 4.13634000 2.65222000 18.82350000
H 4.52424000 0.85581000 18.74120000
H 4.57314000 3.47819000 17.43200000
O 1.90697000 9.01067000 10.06933000
H 2.57757000 7.68567000 9.08203000
H 0.61977000 9.68807000 8.86803000
O 15.70000000 17.72820000 3.86643000
H 16.61010000 16.93840000 5.45393000
H 15.16120000 16.07200000 2.98293000
O 3.23997000 0.29844000 4.77273000
H 4.38907000 23.84427100 3.92183000
H 1.87907000 23.90550900 5.54853000
O 20.48383000 9.96148000 12.35263000
H 20.95663000 8.34788000 12.77803000
H 19.89503000 9.84370000 10.65513000
O 17.14091000 21.38514000 20.55553000
H 18.33833000 20.54974000 21.82288000
H 16.71304000 19.59174000 19.80664000
O 6.56526000 5.35027000 15.09971000
H 8.14386000 4.34517000 14.51197000
H 4.99466000 5.17867000 14.03437000
O 11.03030000 23.45047000 9.82537000
H 10.31440000 0.18972000 9.44067000
H 11.47430000 23.39226000 11.76420000
O 13.89864000 21.92046000 0.44046000
H 15.12474000 21.44343000 24.12513000
H 14.61134000 20.74141000 1.82926000
O 15.55570000 17.45974000 15.86047000
H 14.88910000 15.78000000 16.42079000
H 17.27250000 17.10533000 15.46021000
O 20.29600000 17.64480000 12.96520000
H 20.71070000 19.36420000 13.67780000
H 21.31040000 16.02440000 13.31260000
O 12.12520000 22.02170000 15.51506000
H 11.45550000 21.21690000 17.09574000
H 13.93610000 21.43650000 15.71450000
O 23.85790000 20.64363000 5.63833000
H 22.10470000 21.22963000 5.83183000
H 23.70660000 20.32993000 3.61003000
O 14.46447000 9.17165000 4.60507000
H 14.84232000 10.46160000 3.19701000
H 13.55607000 7.79689000 4.10498000
O 17.75240000 23.57684000 11.42860000
H 18.03890000 23.62964000 9.76402000
H 16.01260000 24.27494000 11.40170000
O 22.91013000 13.85230000 15.06373000
H 22.82083000 13.41780000 17.02253000
H 22.09862000 12.44480000 14.17543000
O 19.26273000 18.63853000 24.37387300
H 21.17853000 18.95953000 24.53205900
H 18.28613000 17.86653000 1.08571000
O 22.50250000 10.52210000 18.98214000
H 23.96890000 9.23153000 19.80814000
H 21.03480000 9.72332000 18.67104000
O 6.12667000 20.64063000 3.25082000
H 5.01777000 19.22753000 2.75721000
H 6.91497000 20.29553000 4.68231000
O 8.57950000 19.53284000 7.93653000
H 9.97771000 18.61544000 8.65883000
H 9.00299000 21.12834000 8.40563000
O 2.14766000 10.62933000 1.58508000
H 1.09940000 11.01873000 3.08730000
H 1.38012000 10.42063000 24.66012300
O 16.71035000 15.92292000 8.96444000
H 15.00620000 15.99614000 9.25262000
H 17.63742000 16.52174000 10.48800000
O 19.54233000 5.07975000 18.81040000
H 20.98490000 4.23962000 19.68710000
H 20.07952000 4.67818000 17.19220000
O 1.42933000 8.81557000 21.42728000
H 0.69693000 6.99727000 21.77220000
H 3.20153000 8.37477000 21.23009000
O 24.28240000 3.65073000 21.74613000
H 0.04623000 3.27666000 23.64263000
H 0.87083000 3.08934000 20.69613000
O 15.40950000 2.16883000 1.15226000
H 17.54650000 2.33533000 1.49686000
H 14.94220000 0.27203000 0.83386000
O 9.74317000 10.88440000 21.24640000
H 11.39637000 10.07510000 20.99240000
H 9.06967000 10.91020000 22.86500000
    
    &END COORD
  &END SUBSYS
  &DFT
    BASIS_SET_FILE_NAME  BASIS_SET
    POTENTIAL_FILE_NAME  GTH_POTENTIALS
    &QS
      EPS_DEFAULT 1.0E-10
    &END QS
    &MGRID
      NGRIDS 4
      CUTOFF 135
      REL_CUTOFF 115
    &END MGRID
    &XC
      &XC_FUNCTIONAL PADE
      &END XC_FUNCTIONAL
    &END XC
    &SCF
      SCF_GUESS ATOMIC
      EPS_SCF 1.0E-7
      MAX_SCF 300
      &DIAGONALIZATION  ON
        ALGORITHM STANDARD
      &END DIAGONALIZATION
      &MIXING  T
        METHOD BROYDEN_MIXING
        ALPHA 0.4
        NBROYDEN 8
      &END MIXING
    &END SCF
  &END DFT
  &PRINT
    &FORCES ON
    &END FORCES
  &END PRINT
&END FORCE_EVAL
