&GLOBAL
  PROJECT H2O_bulk
  RUN_TYPE ENERGY_FORCE
  PRINT_LEVEL LOW
&END GLOBAL
&FORCE_EVAL
  METHOD Quickstep
  &SUBSYS
    &KIND H
      ELEMENT   H
      BASIS_SET DZVP-GTH-PBE
      POTENTIAL GTH-PBE-q1
    &END KIND
    &KIND O
      ELEMENT   O
      BASIS_SET DZVP-GTH-PBE
      POTENTIAL GTH-PBE-q6
    &END KIND
    &CELL
      A     24.66478 0.0 0.0
      B     0.0 24.66478 0.0
      C     0.0 0.0 24.66478
    &END CELL
    &COORD

O 0.24012000 20.76750000 18.23186000
H 23.70330000 20.91586000 17.02466000
H 0.50722000 18.79548000 18.12626000
O 0.54774000 0.36054000 21.31684000
H 2.22394000 1.07194000 20.70499000
H 0.35544000 23.45992000 19.89584000
O 13.38340000 2.67625000 15.92470000
H 14.10530000 3.65190000 17.44630000
H 12.73430000 1.37443000 16.98330000
O 18.48947000 16.28707000 21.55327000
H 20.13398000 15.46500000 21.00252000
H 18.95410000 17.12844000 22.85782000
O 4.92856000 6.93102000 17.95510000
H 6.70503000 7.59662000 18.51800000
H 4.99095000 6.99912000 16.20070000
O 19.19030000 10.62810000 6.18569000
H 18.64815000 12.17030000 6.70064000
H 18.19245000 10.17680000 4.78051000
O 21.19992000 5.02072000 13.76710000
H 22.80452000 4.44632000 13.97740000
H 19.81852000 3.58972000 13.36690000
O 24.02397200 17.72806000 7.54336000
H 0.63264000 18.12286000 8.95902000
H 23.24371000 19.59956000 7.31343000
O 8.58222000 14.70376000 17.09420000
H 6.87602000 14.73416000 16.19990000
H 8.87202000 13.26196000 17.85290000
O 9.64390000 20.16866000 24.55656000
H 11.38340000 20.43026000 24.23226000
H 8.68502000 19.62776000 1.79848000
O 13.15708000 2.27847000 8.91584000
H 13.02958000 3.53539000 7.42443000
H 11.72558000 2.76502000 10.12270000
O 12.64198000 4.81732000 3.96844000
H 10.85758000 4.86312000 3.81164000
H 13.67308000 3.51892000 3.21284000
O 12.59670000 14.59506000 9.31938000
H 11.99500000 13.99316000 7.68338000
H 11.68400000 13.53196000 10.41108000
O 3.83782000 14.30240000 14.47832000
H 2.04762000 14.37890000 14.91582000
H 4.33462000 13.01110000 13.13282000
O 24.02910700 0.56564300 4.62232000
H 23.99824300 23.82781100 3.34232000
H 1.05268000 0.81804800 4.71124000
O 16.24486000 22.62260000 8.45452000
H 14.48486000 23.64320000 8.39262000
H 15.60296000 21.04270000 7.63982000
O 14.85506000 12.32040000 23.69720000
H 14.75886000 11.18750000 22.23820000
H 16.05056000 13.46930000 23.56240000
O 2.17508000 17.53264000 2.89048000
H 1.19568000 17.10524000 4.23778000
H 2.64648000 16.14154000 1.97808000
O 20.37024000 21.67930000 15.33252000
H 19.66264000 22.89580000 14.39772000
H 18.95934000 20.55580000 16.09282000
O 7.35444000 4.05218000 3.25986000
H 6.15584000 3.70598000 4.29081000
H 7.34024000 3.59788000 1.45447000
O 3.24772000 18.47930000 10.92158000
H 4.96112000 18.58360000 10.56578000
H 3.15852000 16.93040000 12.12058000
O 9.88488000 4.47605000 12.44444000
H 10.28598000 5.87904000 11.82014000
H 11.35278000 4.10266000 13.82484000
O 7.09296000 0.98539100 24.19194300
H 6.23453000 1.48377000 22.51689000
H 7.97441000 24.23175400 24.44679700
O 20.37222000 4.47432000 2.37882000
H 19.87152000 6.31029000 2.79192000
H 21.46392000 3.86408000 3.84422000
O 24.46233000 12.25094000 6.58782000
H 22.71046000 11.59584000 6.52642000
H 23.98012400 13.79914000 7.14232000
O 12.57660000 8.30372000 9.57388000
H 11.04110000 8.57592000 8.78551000
H 13.75260000 7.82162000 8.30650000
O 8.87358000 18.88990000 19.24900000
H 9.14808000 17.11890000 18.86470000
H 9.42608000 18.81850000 21.11320000
O 7.73012000 9.37322000 1.67484000
H 7.32532000 7.59622000 1.68664000
H 5.83102000 10.16282000 1.09264000
O 13.62570000 8.94192000 19.09340000
H 13.99620000 9.22652000 17.46430000
H 14.13690000 7.20912000 19.55770000
O 5.57429000 21.99836000 16.32840000
H 3.81325000 21.69716000 16.53500000
H 6.59770000 20.63256000 17.24830000
O 24.22053200 21.49400000 0.90150400
H 0.73270900 20.00810000 1.08790000
H 24.61038100 22.87630000 24.44635900
O 1.00111000 2.76017000 14.72930000
H 0.89233700 1.10903000 13.75650000
H 1.81251000 2.62559000 16.44950000
O 15.44506000 4.06744000 20.64506000
H 17.38076000 4.61664000 20.27796000
H 15.79926000 3.81234000 22.39626000
O 3.12857000 3.27384000 7.32598000
H 2.97532000 4.82844000 8.33418000
H 2.85562000 2.13624000 8.33968000
O 11.80016000 14.91362000 4.28303000
H 11.85506000 14.01182000 2.76948000
H 10.19756000 15.56512000 4.30480000
O 15.57860000 10.21482000 13.99580000
H 17.25570000 9.66262000 14.18960000
H 15.13530000 9.54562000 12.27270000
O 8.51818000 10.56588000 7.32123000
H 8.09428000 10.30478000 5.64742000
H 7.21088000 11.24988000 8.25797000
O 5.33646000 1.80951000 19.08070000
H 5.52666000 0.37770800 17.71270000
H 5.38636000 3.00521000 18.02970000
O 3.81658000 11.02818000 10.32082000
H 4.35828000 9.13348000 10.72862000
H 2.09178000 10.85438000 9.38162000
O 16.00140000 18.05470000 5.41682000
H 16.54340000 16.79570000 6.93442000
H 14.55450000 17.15570000 4.67602000
O 1.63848000 23.40672000 11.94862000
H 1.90338000 21.57163000 11.96112000
H 24.50556000 23.37422000 11.28512000
O 21.30632000 9.99117000 13.16682000
H 20.95912000 8.20397000 12.84592000
H 20.53622000 10.29450000 11.52052000
O 16.53994000 18.61576000 16.97288000
H 17.04874000 18.00226000 18.84071000
H 15.75824000 16.94426000 16.03821000
O 4.65824000 6.07258000 12.27638000
H 6.37674000 4.90998000 11.98398000
H 3.73224000 4.63328000 13.13578000
O 8.60991000 22.81465000 11.80230000
H 10.17490000 23.34745000 11.89610000
H 7.39595000 23.01281000 13.24610000
O 15.03876000 22.06494000 23.82762000
H 14.63566000 22.52316000 22.23652000
H 16.67376000 21.30016000 24.04282000
O 13.92160000 14.85505000 14.78118000
H 12.35310000 15.06711000 15.44751000
H 14.29240000 13.10518000 14.44418000
O 20.45730000 17.39360000 12.20250000
H 20.01700000 18.78820000 13.61870000
H 21.58130000 17.68970000 10.88610000
O 13.54890000 22.20540000 18.70166000
H 11.83280000 21.56460000 18.93722000
H 14.89560000 20.70140000 17.96760000
O 22.17900000 22.49262000 8.23232000
H 20.25630000 22.48852000 8.24232000
H 22.59210000 23.69312000 6.62942000
O 15.30444000 9.13395000 3.50565000
H 14.96978000 9.88635000 1.82083000
H 14.45848000 7.62390000 3.05092000
O 17.94240000 1.03598000 13.07450000
H 17.49860000 24.64356000 11.70230000
H 16.28680000 1.69638000 13.61180000
O 23.73492100 15.04390000 16.29472000
H 22.67755000 13.87050000 17.68922000
H 22.18789000 15.04730000 15.25972000
O 18.87322000 19.59542000 0.92710400
H 20.44932000 19.83872000 1.27763000
H 18.03972000 19.50642000 2.58888000
O 21.94370000 11.56420000 19.90276000
H 23.51280000 10.80430000 20.70316000
H 20.23880000 10.39370000 19.79146000
O 7.69038000 18.13302000 4.56188000
H 5.85368000 17.96872000 4.31609000
H 8.25198000 18.63532000 6.30900000
O 8.74936000 18.33396000 9.50122000
H 10.46110000 17.35906000 9.38012000
H 9.34710000 20.19266000 10.56462000
O 2.57461000 11.72502000 1.75352000
H 1.70866000 11.39012000 3.40159000
H 1.67583000 10.72062000 0.54885000
O 17.71623000 14.58348000 8.97443000
H 15.86403000 14.30038000 8.76514000
H 18.26790000 15.60125000 10.42840000
O 19.09674000 6.52108000 18.16360000
H 20.06724000 6.03135000 19.66450000
H 20.06603000 6.34070000 16.49480000
O 1.34122000 8.91728000 22.16521000
H 24.65410000 7.66748000 22.28772000
H 2.36382000 8.55388000 20.73627000
O 22.59760000 5.19055000 22.62642000
H 21.95220000 5.15777000 24.50312000
H 23.52020000 3.69704000 22.34342000
O 16.20440000 2.07732000 0.68514000
H 18.00450000 2.50092000 1.16684000
H 16.13090000 0.19582000 0.86124000
O 8.30748000 9.54517000 20.15710000
H 10.04878000 9.02673000 20.10640000
H 8.30308000 10.06610000 21.91460000
    
    &END COORD
  &END SUBSYS
  &DFT
    BASIS_SET_FILE_NAME  BASIS_SET
    POTENTIAL_FILE_NAME  GTH_POTENTIALS
    &QS
      EPS_DEFAULT 1.0E-10
    &END QS
    &MGRID
      NGRIDS 4
      CUTOFF 135
      REL_CUTOFF 115
    &END MGRID
    &XC
      &XC_FUNCTIONAL PADE
      &END XC_FUNCTIONAL
    &END XC
    &SCF
      SCF_GUESS ATOMIC
      EPS_SCF 1.0E-7
      MAX_SCF 300
      &DIAGONALIZATION  ON
        ALGORITHM STANDARD
      &END DIAGONALIZATION
      &MIXING  T
        METHOD BROYDEN_MIXING
        ALPHA 0.4
        NBROYDEN 8
      &END MIXING
    &END SCF
  &END DFT
  &PRINT
    &FORCES ON
    &END FORCES
  &END PRINT
&END FORCE_EVAL
