&GLOBAL
  PROJECT H2O_bulk
  RUN_TYPE ENERGY_FORCE
  PRINT_LEVEL LOW
&END GLOBAL
&FORCE_EVAL
  METHOD Quickstep
  &SUBSYS
    &KIND H
      ELEMENT   H
      BASIS_SET DZVP-GTH-PBE
      POTENTIAL GTH-PBE-q1
    &END KIND
    &KIND O
      ELEMENT   O
      BASIS_SET DZVP-GTH-PBE
      POTENTIAL GTH-PBE-q6
    &END KIND
    &CELL
      A     25.90885 0.0 0.0
      B     0.0 25.90885 0.0
      C     0.0 0.0 25.90885
    &END CELL
    &COORD

O 12.40470000 3.31668000 9.10162000
H 11.67040000 1.72481000 9.56902000
H 12.56630000 3.86549000 7.33141000
O 14.96390000 23.80650000 23.52190000
H 14.33100000 24.64350000 22.17920000
H 13.60600000 23.05030000 24.14140000
O 24.24520000 24.72910000 23.91650000
H 1.23396000 25.06845500 23.72950000
H 24.05350000 25.35920000 25.36715400
O 13.92610000 3.63901000 18.70330000
H 14.54270000 2.13191000 18.43790000
H 12.30200000 3.33251000 19.64980000
O 1.15035000 6.59526000 24.64100000
H 1.93258000 7.63667000 0.11148200
H 0.32031600 6.83644000 23.28340000
O 2.40254000 1.67460000 1.48260000
H 1.13413000 1.15614000 2.66296000
H 2.34520000 3.35009000 0.63589100
O 1.25620000 24.65680000 9.90736000
H 1.79796000 1.94461000 11.93070000
H 25.66177300 25.19313100 9.07204000
O 9.86165000 12.27470000 20.81210000
H 10.89540000 13.20340000 22.02670000
H 8.39903000 11.96800000 21.58080000
O 5.86429000 10.79590000 4.98919000
H 5.75880000 10.66720000 6.87276000
H 7.42431000 10.02820000 4.29390000
O 10.79530000 22.48350000 16.44910000
H 11.00410000 20.76590000 17.59060000
H 9.53024000 22.11380000 15.44650000
O 1.45260000 20.67730000 23.22880000
H 0.52818900 19.78520000 22.05840000
H 0.34350100 20.82590000 24.49380000
O 2.26058000 16.64220000 6.59642000
H 3.91419000 16.25180000 7.28695000
H 1.46893000 15.02540000 7.15337000
O 20.96160000 10.13470000 8.92420000
H 19.11620000 10.01980000 8.05765000
H 19.50720000 8.37164000 11.39940000
O 7.96426000 14.40640000 14.77210000
H 8.49877000 15.77660000 13.63890000
H 8.71697000 13.12750000 14.46290000
O 17.44560000 18.84480000 23.38430000
H 18.32540000 19.43550000 25.01360000
H 16.50700000 20.13140000 23.19660000
O 0.98780200 14.05610000 23.50410000
H 2.25103000 15.46930000 23.81180000
H 0.31722000 14.31500000 22.03980000
O 0.75579100 7.68049000 7.41709000
H 0.16585000 9.41029000 7.06680000
H 2.44401000 7.77874000 7.02309000
O 2.49312000 20.97940000 14.66660000
H 1.62398000 18.85380000 14.75040000
H 2.58512000 21.44680000 13.09930000
O 24.77780000 2.40375000 5.68121000
H 23.14550000 2.25796000 6.32230000
H 25.33778300 4.46986000 6.05029000
O 13.32570000 8.90311000 21.42960000
H 14.65520000 7.83814000 20.53710000
H 12.16330000 9.00058000 20.08290000
O 14.67950000 14.19450000 7.37915000
H 14.54620000 12.44150000 6.86958000
H 13.03200000 15.05260000 6.32850000
O 19.34120000 3.87051000 4.31828000
H 19.40510000 2.44500000 3.27528000
H 20.08790000 4.85229000 2.74747000
O 2.32967000 14.78900000 13.96910000
H 1.39322000 14.04620000 15.48230000
H 4.21050000 14.65040000 14.10190000
O 10.44010000 21.96420000 25.16677400
H 9.59665000 21.28090000 23.67860000
H 9.56402000 20.85540000 0.44679500
O 19.49540000 23.47040000 1.99267000
H 18.01770000 22.86820000 2.05847000
H 19.31430000 24.29460000 0.46259800
O 5.07628000 22.55120000 19.88740000
H 3.33957000 23.27700000 19.47540000
H 4.91128000 22.13300000 21.53320000
O 19.89570000 20.27940000 14.95320000
H 21.43550000 19.90760000 14.11950000
H 18.38610000 20.92400000 13.67940000
O 5.15474000 22.07390000 6.86847000
H 3.79452000 22.75530000 7.83672000
H 6.67334000 23.04860000 7.32558000
O 22.27970000 3.75852000 11.85890000
H 23.29550000 2.64480000 13.12300000
H 23.66320000 5.14520000 12.04040000
O 22.43900000 18.93200000 20.37500000
H 21.26140000 20.16150000 21.32050000
H 21.98850000 18.99440000 18.51430000
O 19.90730000 12.16940000 24.67090000
H 18.93100000 13.02520000 25.83704000
H 19.66790000 10.49820000 25.22036400
O 14.26550000 24.30430000 9.74828000
H 13.67190000 22.94170000 11.08050000
H 16.08010000 24.35220000 10.16830000
O 20.89590000 19.10230000 2.76867000
H 21.86240000 17.95150000 3.23179000
H 21.83160000 20.32780000 2.39840000
O 1.87875000 7.05147000 19.71000000
H 0.75997800 5.55423000 19.11900000
H 3.63321000 6.82723000 18.76030000
O 20.18170000 13.90620000 19.82450000
H 21.69170000 15.00040000 20.20090000
H 20.30270000 12.67900000 21.24810000
O 16.92030000 5.77157000 10.32740000
H 17.20510000 3.89544000 9.40386000
H 18.30310000 5.71036000 11.49820000
O 24.40270000 20.00100000 10.34980000
H 24.77740000 18.58640000 9.54389000
H 25.47350800 21.14770000 9.42101000
O 25.31863400 12.21470000 18.19780000
H 23.64060000 12.54470000 17.84800000
H 25.76550200 10.46070000 18.21620000
O 6.03607000 11.09810000 24.49720000
H 5.10547000 12.57880000 24.81710000
H 7.54967000 11.55280000 25.54230400
O 16.30880000 9.71946000 5.13456000
H 15.48370000 7.86517000 5.62619000
H 16.85120000 9.73977000 3.49643000
O 20.65220000 5.98278000 24.84020000
H 20.36360000 4.92915000 23.37400000
H 24.46500000 4.79822000 1.64415000
O 24.47890000 13.44000000 3.22398000
H 25.76181300 14.85190000 3.25328000
H 23.63040000 13.87780000 1.88046000
O 9.98793000 0.22355100 20.38370000
H 8.65268000 0.29965200 21.65450000
H 9.46462000 24.68740000 19.43610000
O 8.06907000 0.44470700 2.92744000
H 6.26785000 1.27689000 3.16733000
H 7.57866000 0.20245000 1.19897000
O 14.89970000 13.53680000 16.30220000
H 14.82990000 11.91630000 16.39670000
H 16.62510000 13.97880000 16.57830000
O 11.52030000 17.33930000 2.48499000
H 11.93080000 18.77710000 1.61154000
H 12.04570000 16.04740000 1.47965000
O 15.83380000 20.90150000 4.65630000
H 17.14080000 19.62400000 5.23588000
H 14.40580000 21.29180000 5.75031000
O 16.40740000 24.30580000 17.10760000
H 15.10760000 23.74800000 16.41280000
H 17.64620000 24.05960000 16.16400000
O 20.78490000 1.53181000 20.14030000
H 19.55200000 0.18396600 20.44720000
H 21.73020000 1.05924000 21.34710000
O 0.87515400 21.67900000 2.95338000
H 3.02532000 22.66210000 2.92627000
H 1.25454000 20.19810000 4.03720000
O 12.32720000 3.05813000 3.22732000
H 12.20460000 3.47798000 1.51375000
H 10.74830000 2.29986000 3.18714000
O 7.55469000 4.85373000 8.49159000
H 8.87578000 5.53100000 9.55829000
H 8.58103000 3.83278000 7.46939000
O 25.89482700 2.08911000 16.68150000
H 24.28910000 1.24355000 17.35170000
H 1.39908000 1.76227000 17.67240000
O 7.12964000 7.65736000 18.22160000
H 7.71601000 6.25772000 16.16110000
H 8.61880000 8.54971000 18.43600000
O 10.41470000 10.47610000 11.01190000
H 11.80780000 9.38693000 11.81050000
H 11.74290000 12.36280000 10.53480000
O 11.48550000 17.73720000 19.11080000
H 11.96320000 16.92350000 17.70690000
H 9.71127000 17.11240000 20.00560000
O 14.12230000 8.11415000 14.75580000
H 14.81070000 7.50905000 16.45180000
H 14.24760000 6.66620000 13.90840000
O 14.51540000 14.64320000 23.95220000
H 15.81050000 15.81830000 23.83740000
H 15.18790000 13.01470000 24.50610000
O 4.89320000 2.71764000 12.60140000
H 5.77662000 1.80133000 11.71300000
H 5.18582000 4.17489000 11.55070000
O 19.71910000 24.83250000 8.63699000
H 19.46500000 24.24950000 6.81532000
H 20.96690000 0.12905500 9.41231000
O 12.97660000 9.27800000 1.12494000
H 13.04080000 8.00542000 2.13367000
H 12.66550000 8.90091000 25.09160000
O 7.57013000 20.19690000 12.24530000
H 7.44220000 18.43140000 11.65020000
H 6.31687000 20.33990000 13.32530000
O 24.36220000 14.29090000 9.68594000
H 25.70434800 14.34640000 11.25910000
H 22.86480000 13.19840000 9.51554000
O 15.38960000 17.78990000 11.94250000
H 14.42660000 18.13300000 10.19890000
H 16.97810000 16.86770000 11.85930000
    
    &END COORD
  &END SUBSYS
  &DFT
    BASIS_SET_FILE_NAME  BASIS_SET
    POTENTIAL_FILE_NAME  GTH_POTENTIALS
    &QS
      EPS_DEFAULT 1.0E-10
    &END QS
    &MGRID
      NGRIDS 4
      CUTOFF 135
      REL_CUTOFF 115
    &END MGRID
    &XC
      &XC_FUNCTIONAL PADE
      &END XC_FUNCTIONAL
    &END XC
    &SCF
      SCF_GUESS ATOMIC
      EPS_SCF 1.0E-7
      MAX_SCF 300
      &DIAGONALIZATION  ON
        ALGORITHM STANDARD
      &END DIAGONALIZATION
      &MIXING  T
        METHOD BROYDEN_MIXING
        ALPHA 0.4
        NBROYDEN 8
      &END MIXING
    &END SCF
  &END DFT
  &PRINT
    &FORCES ON
    &END FORCES
  &END PRINT
&END FORCE_EVAL
