&GLOBAL
  PROJECT H2O_bulk
  RUN_TYPE ENERGY_FORCE
  PRINT_LEVEL LOW
&END GLOBAL
&FORCE_EVAL
  METHOD Quickstep
  &SUBSYS
    &KIND H
      ELEMENT   H
      BASIS_SET DZVP-GTH-PBE
      POTENTIAL GTH-PBE-q1
    &END KIND
    &KIND O
      ELEMENT   O
      BASIS_SET DZVP-GTH-PBE
      POTENTIAL GTH-PBE-q6
    &END KIND
    &CELL
      A     24.35325 0.0 0.0
      B     0.0 24.35325 0.0
      C     0.0 0.0 24.35325
    &END CELL
    &COORD

O 20.31260000 2.74323000 15.54050000
H 20.29740000 3.20480000 17.30490000
H 19.22380000 1.55161000 15.63760000
O 23.41695000 20.25385000 11.27610000
H 0.38030000 19.39445000 10.52120000
H 22.69145000 21.16765000 9.89988000
O 9.56466000 0.88919400 13.82370000
H 10.32630000 23.75370400 13.65670000
H 8.10331000 1.07631000 15.19100000
O 19.65016000 13.58005000 23.40682000
H 20.69967000 14.87728000 22.38617000
H 18.30636000 14.51939000 24.21261000
O 7.64864000 4.43805000 21.51050000
H 7.82109000 5.64545000 22.78280000
H 8.68559000 3.72285000 20.37690000
O 22.90703000 13.93030000 8.53310000
H 23.03455000 13.19440000 6.86268000
H 0.05454900 14.93650000 8.79131000
O 14.02725000 23.27690000 11.30410000
H 15.19335000 23.96510000 10.16930000
H 13.06055000 21.90160000 10.48320000
O 0.58775400 0.08365000 15.39750000
H 0.13892100 23.22930000 14.15800000
H 23.33823000 1.03865000 15.44000000
O 6.55975000 13.23890000 17.76960000
H 7.82515000 12.42950000 18.55500000
H 6.38995000 14.91560000 18.07190000
O 8.31042000 19.83540000 23.89070000
H 9.79021000 19.07590000 23.55720000
H 7.61806000 18.83370000 0.75825000
O 10.35275000 3.39463000 4.84449000
H 8.87465000 2.20459000 4.42699000
H 11.88875000 2.47951000 4.06393000
O 15.08905000 2.01325000 2.75020000
H 15.07824000 1.62405000 1.18610000
H 15.97136000 3.78665000 2.79350000
O 14.88940000 18.67200000 6.10335000
H 16.21560000 17.64590000 6.79425000
H 13.73250000 18.14590000 7.37335000
O 2.94565000 16.59610000 9.74665000
H 4.16925000 17.15300000 8.67735000
H 3.81535000 15.35300000 10.70305000
O 22.85598000 2.86480000 0.63123200
H 0.17763700 3.88481000 0.17877800
H 23.14704000 1.63125000 1.58799000
O 22.16200000 23.49870000 7.22185000
H 22.27830000 23.02620000 5.44565000
H 20.03070000 23.55980000 7.25885000
O 17.06790000 8.64984000 21.71820000
H 15.95230000 8.21155000 20.32860000
H 17.83030000 10.33930000 21.25250000
O 8.15115000 14.91670000 3.15165000
H 8.32865000 14.42540000 5.16945000
H 6.38025000 13.83330000 3.10505000
O 16.50900000 23.12090000 15.76685000
H 15.69020000 22.68470000 13.97625000
H 18.18150000 22.04990000 15.96675000
O 5.71060000 1.07535000 3.95685000
H 4.28600000 1.82045000 5.27184000
H 4.97100000 0.36225000 2.05643000
O 10.89115000 18.96650000 9.83595000
H 11.10145000 17.23770000 9.29615000
H 11.08765000 18.80840000 11.63515000
O 14.27585000 8.13799000 12.23950000
H 12.97615000 6.74366000 11.99110000
H 15.89636000 7.91465000 11.41670000
O 5.53292000 24.30298100 23.23439000
H 6.76788000 23.01199000 23.57189900
H 6.31190000 1.44473000 22.67057000
O 20.07845000 4.51814000 20.40490000
H 19.38085000 5.84450000 21.18500000
H 21.07695000 3.89013000 21.61090000
O 22.75432000 12.29150000 3.31995000
H 21.28451000 12.65580000 2.55885000
H 24.28312800 13.10770000 2.39565000
O 10.43130000 13.71205000 8.90038000
H 8.93606000 13.36105000 9.90644000
H 11.76130000 13.22025000 10.04530000
O 6.02685000 18.76170000 18.75510000
H 4.81015000 20.28610000 19.05220000
H 6.95765000 18.87110000 20.75300000
O 8.64255000 7.53775000 0.88790000
H 9.13335000 6.28965000 2.16030000
H 7.32005000 8.55625000 1.54330000
O 13.60800000 8.57435000 18.14150000
H 13.76090000 9.00715000 16.25300000
H 13.08350000 6.90415000 17.75090000
O 23.06719000 21.77210000 2.38375000
H 21.45442000 21.05560000 1.86385000
H 24.19591500 20.53300000 2.68905000
O 3.16047000 13.61840000 1.23387000
H 3.27022000 11.73200000 1.30740000
H 2.85302000 14.04350000 23.81805900
O 5.14223000 2.04415000 16.30870000
H 3.68721000 1.40565000 15.23870000
H 4.50933000 2.16103000 18.31930000
O 12.03640000 3.97460000 18.24480000
H 11.70860000 3.35320000 16.53450000
H 13.19450000 2.96770000 19.04600000
O 1.74310000 3.00480000 7.36285000
H 2.97012000 3.51690000 8.54695000
H 1.22705000 1.30670000 7.99985000
O 15.57880000 11.54395000 5.13050000
H 13.80870000 12.02595000 5.14786000
H 15.84490000 10.18685000 3.70246000
O 22.57040000 9.92005000 12.95770000
H 0.04185000 9.67005000 12.63770000
H 22.48710000 11.90315000 12.34130000
O 9.84525000 4.60425000 10.05510000
H 10.22545000 4.28695000 8.13931000
H 10.39675000 2.97275000 10.82990000
O 2.37720000 5.50229000 21.52430000
H 1.34630000 6.75259000 20.40350000
H 3.77890000 4.92767000 20.61160000
O 3.05005000 9.44935000 10.62015000
H 4.01585000 7.82875000 10.69365000
H 2.76895000 9.06195000 8.93835000
O 17.97490000 14.99900000 7.43565000
H 19.66550000 14.61940000 7.58865000
H 17.71640000 13.31110000 6.53565000
O 1.71045000 22.08600000 20.06655000
H 2.61925000 23.54680600 20.78005000
H 1.36915000 23.02721000 18.42905000
O 20.19585000 5.09357000 6.58215000
H 20.10665000 5.54952000 8.59825000
H 21.05125000 3.63774000 6.73945000
O 15.63981000 17.60260000 15.02252000
H 17.38244000 17.85780000 15.37330000
H 15.55826000 16.33370000 14.06965000
O 4.89610000 4.89375000 11.35465000
H 6.76180000 4.55445000 10.86945000
H 5.25230000 4.21125000 13.01735000
O 16.80050000 23.69349400 6.62188000
H 16.50460000 0.24481300 5.17929000
H 16.07190000 21.88243000 6.33085000
O 11.88590000 16.49876000 21.75445000
H 11.49270000 14.89472000 21.14135000
H 13.08190000 16.75469000 23.07145000
O 6.53241000 13.13095000 12.29945000
H 6.84084000 12.94165000 14.03245000
H 5.44972000 11.65575000 12.12655000
O 20.96100000 19.15170000 15.81120000
H 21.76550000 19.26920000 14.02420000
H 22.08720000 18.42570000 16.91010000
O 10.81160000 19.98650000 14.66062000
H 12.37450000 19.52660000 15.17942000
H 9.97651000 19.44640000 16.11245000
O 0.79925000 8.39690000 5.63125000
H 23.88760000 10.07970000 5.45255000
H 24.11710000 6.96850000 6.01725000
O 17.15464000 7.07729000 2.75018000
H 18.20996000 6.63523000 4.38991000
H 18.13322000 7.17480000 1.00009000
O 14.56520000 20.91410000 20.24170000
H 13.24640000 19.45990000 20.51030000
H 14.58650000 21.62570000 18.48870000
O 18.80845000 20.78060000 22.83465000
H 20.37782000 19.78380000 22.00245000
H 17.48162000 20.96980000 21.76025000
O 15.62465000 16.83785000 1.09593000
H 16.61175000 18.14295000 0.09892000
H 15.39305000 17.43355000 3.18570000
O 22.94200000 17.69510000 20.54190000
H 23.60240000 16.17230000 20.42150000
H 24.21200000 19.26870000 20.29050000
O 2.12885000 18.35715000 4.18585000
H 2.90455000 17.16225000 3.10010000
H 3.55345000 19.51605000 4.81053000
O 6.10716000 20.53290000 6.86055000
H 7.62797000 20.20380000 7.97865000
H 6.67098000 21.95650000 5.95295000
O 3.60736000 8.78325000 1.38555000
H 3.29823000 7.46275000 23.89631100
H 2.86960000 7.87865000 2.58278000
O 14.89981000 13.61915000 11.24670000
H 15.39446000 11.92775000 11.61950000
H 16.21605000 14.15565000 10.06170000
O 19.23825000 6.46960000 11.35060000
H 19.75115000 8.08868000 11.97610000
H 19.75289000 5.21150000 12.66490000
O 1.87915000 13.35665000 20.66601000
H 3.42165000 12.80895000 19.57925000
H 0.63655000 11.71465000 20.15837000
O 22.99260000 9.36573000 18.59535000
H 22.21130000 7.81964000 18.62755000
H 22.78320000 9.77085000 16.79365000
O 15.20260000 1.84995000 21.42405000
H 17.11610000 2.04225000 20.98275000
H 14.83730000 0.13285000 21.36925000
O 10.80035000 11.44500000 21.80040000
H 11.93385000 10.53180000 20.64960000
H 9.82895000 10.36980000 22.87740000
    
    &END COORD
  &END SUBSYS
  &DFT
    BASIS_SET_FILE_NAME  BASIS_SET
    POTENTIAL_FILE_NAME  GTH_POTENTIALS
    &QS
      EPS_DEFAULT 1.0E-10
    &END QS
    &MGRID
      NGRIDS 4
      CUTOFF 135
      REL_CUTOFF 115
    &END MGRID
    &XC
      &XC_FUNCTIONAL PADE
      &END XC_FUNCTIONAL
    &END XC
    &SCF
      SCF_GUESS ATOMIC
      EPS_SCF 1.0E-7
      MAX_SCF 300
      &DIAGONALIZATION  ON
        ALGORITHM STANDARD
      &END DIAGONALIZATION
      &MIXING  T
        METHOD BROYDEN_MIXING
        ALPHA 0.4
        NBROYDEN 8
      &END MIXING
    &END SCF
  &END DFT
  &PRINT
    &FORCES ON
    &END FORCES
  &END PRINT
&END FORCE_EVAL
