&GLOBAL
  PROJECT H2O_bulk
  RUN_TYPE ENERGY_FORCE
  PRINT_LEVEL LOW
&END GLOBAL
&FORCE_EVAL
  METHOD Quickstep
  &SUBSYS
    &KIND H
      ELEMENT   H
      BASIS_SET DZVP-GTH-PBE
      POTENTIAL GTH-PBE-q1
    &END KIND
    &KIND O
      ELEMENT   O
      BASIS_SET DZVP-GTH-PBE
      POTENTIAL GTH-PBE-q6
    &END KIND
    &CELL
      A     23.09127 0.0 0.0
      B     0.0 23.09127 0.0
      C     0.0 0.0 23.09127
    &END CELL
    &COORD

O 4.88005000 16.53540000 18.15410000
H 4.35360000 18.15320000 17.37110000
H 3.72529000 15.13310000 17.75310000
O 5.01499000 6.78048000 22.70803800
H 4.36762000 8.60313000 0.12494800
H 4.01570000 5.43341000 0.37715500
O 12.68770000 9.49360000 13.45360000
H 11.35390000 10.77170000 13.07060000
H 11.93390000 7.89081000 13.98710000
O 7.19849000 15.93230000 22.39660000
H 8.77211000 16.55670000 21.67220000
H 5.92925000 16.06290000 21.06490000
O 9.51052000 5.58904000 14.70620000
H 10.38520000 4.04752000 15.15960000
H 8.34631000 5.69446000 16.11420000
O 14.86930000 0.91015000 10.88250000
H 14.90670000 2.64614000 10.26570000
H 13.61650000 23.00206200 9.92500000
O 9.34279000 12.49580000 17.13520000
H 8.03589000 13.99100000 17.36730000
H 10.87300000 12.87370000 17.75190000
O 19.34040000 8.90030000 6.86655000
H 19.81280000 8.46413000 8.59230000
H 20.33010000 10.44760000 6.50515000
O 3.14685000 22.42610000 0.67468400
H 4.89703000 23.02520000 1.02343000
H 2.53786000 20.74860000 0.86986800
O 12.90400000 16.74910000 17.27100000
H 11.94640000 16.66680000 16.03710000
H 14.88870000 16.29560000 15.87850000
O 20.80090000 22.46980000 5.01057000
H 21.62860000 1.81913000 6.47087000
H 19.29520000 23.04540000 4.13721000
O 18.01370000 7.64671000 2.07639000
H 19.66310000 7.50058000 2.92553000
H 18.85590000 8.02603000 0.52100600
O 12.53770000 7.06769000 5.39496000
H 13.64070000 5.54925000 5.16496000
H 13.54640000 8.43582000 4.51418000
O 12.95280000 1.83444000 15.55150000
H 11.90610000 0.28126900 15.43520000
H 14.36430000 1.83417000 14.20490000
O 21.37630000 1.42358000 13.84520000
H 20.80110000 1.59153000 15.57960000
H 20.18030000 2.34913000 12.89130000
O 10.88810000 10.76680000 2.36578000
H 9.87192000 11.85630000 3.58466000
H 10.26810000 11.39630000 0.73063100
O 0.66883800 6.23261000 2.73238000
H 1.46269000 8.06076000 2.48190000
H 1.75000000 5.67327000 4.15728000
O 21.87660000 3.14582000 7.44469000
H 20.14410000 3.70354000 7.13873000
H 23.04260000 4.77421000 7.19893000
O 2.92091000 5.43476000 7.72866000
H 4.48075000 4.40705000 7.65884000
H 3.48462000 7.15682000 7.13634000
O 6.46546000 17.54490000 7.33292000
H 2.95784000 19.39000000 8.43126000
H 6.56795000 16.67450000 8.92433000
O 18.71970000 18.33470000 6.51810000
H 20.29400000 20.98850000 5.58257000
H 17.17460000 18.28480000 5.44642000
O 4.30029000 10.63350000 6.86841000
H 6.08121000 9.90443000 6.59837000
H 4.52635000 11.64430000 8.40686000
O 9.15166000 21.02450000 15.63960000
H 9.73062000 19.61590000 14.49680000
H 8.81700000 20.36200000 17.37790000
O 8.92123000 8.89197000 7.95127000
H 9.96357000 7.78189000 6.88077000
H 8.56636000 7.48198000 9.15766000
O 18.16870000 22.10830000 1.36457000
H 18.92110000 0.53403000 0.85074400
H 19.30960000 20.75630000 0.72065900
O 4.74165000 1.54935000 4.48426000
H 2.98526000 2.40236000 3.88233000
H 5.78147000 2.93415000 3.85023000
O 2.81143000 20.16800000 15.32360000
H 4.42732000 21.00390000 15.46540000
H 1.76050000 21.26960000 14.21020000
O 3.33677000 17.38520000 2.72953000
H 2.34862000 16.07700000 1.95896000
H 5.07472000 16.69140000 2.67688000
O 22.00480000 1.97997000 22.97084400
H 22.41890000 3.74585000 1.01238000
H 0.34003000 1.11274000 0.39584500
O 10.61630000 19.39200000 20.32310000
H 11.79190000 19.28520000 18.98830000
H 11.41330000 19.74360000 21.97100000
O 3.62756000 11.07670000 1.92023000
H 2.30608000 12.57460000 1.60616000
H 4.08588000 11.19630000 3.75906000
O 6.31261000 4.08253000 18.45980000
H 5.28827000 5.32876000 19.35980000
H 6.87134000 3.46444000 20.07420000
O 10.68190000 17.51820000 12.51640000
H 12.41880000 17.75380000 11.87500000
H 9.62347000 15.35620000 11.22930000
O 0.98824100 14.68120000 12.46440000
H 22.97350800 14.24040000 14.09140000
H 0.60145800 16.34740000 11.76880000
O 15.30410000 3.12319000 2.72055000
H 16.33630000 4.56500000 2.11595000
H 15.86280000 1.48427000 1.97694000
O 7.40775000 0.80166200 21.94860000
H 8.66137000 1.29923000 0.15513000
H 8.17366000 22.46315300 21.05470000
O 16.42270000 11.76330000 11.76380000
H 14.84990000 10.53880000 11.48620000
H 16.08530000 12.75140000 10.11980000
O 12.83750000 21.53210000 6.75990000
H 13.87390000 20.89840000 5.45483000
H 11.11620000 20.55120000 7.09416000
O 15.70330000 12.55080000 6.84739000
H 13.91060000 12.19320000 6.49562000
H 16.64950000 10.38580000 6.44260000
O 22.16110000 19.94490000 12.17590000
H 21.39120000 21.53420000 12.67960000
H 20.63570000 19.03550000 10.95050000
O 15.23350000 5.67842000 9.26789000
H 16.15010000 7.34365000 10.35880000
H 13.43860000 5.89709000 9.87012000
O 8.25578000 21.29930000 5.46765000
H 7.56012000 19.64510000 6.12267000
H 6.80374000 22.18900000 4.34859000
O 12.27040000 21.82600000 1.51849000
H 11.20690000 21.89190000 3.05077000
H 13.43420000 0.14693000 1.60434000
O 20.83150000 7.30663000 16.52250000
H 20.43490000 7.21245000 18.32960000
H 22.35720000 6.29004000 16.33080000
O 19.78270000 8.39293000 12.08470000
H 19.70180000 7.12606000 13.46040000
H 19.20310000 10.06230000 12.67430000
O 19.75210000 2.44399000 18.74980000
H 18.82490000 4.09562000 17.95580000
H 21.28170000 2.83332000 19.69660000
O 7.44474000 13.93050000 4.10380000
H 6.34214000 15.07490000 5.48619000
H 6.56212000 13.78120000 2.42268000
O 8.23615000 4.24279000 10.21650000
H 8.83014000 4.23480000 12.15970000
H 8.17953000 2.44438000 9.72850000
O 5.89646000 1.37750000 14.40130000
H 5.39193000 2.38562000 15.83620000
H 7.69073000 0.93179000 14.81590000
O 0.20993000 14.27020000 1.19065000
H 22.77290000 12.84050000 0.03083500
H 22.12990000 14.18420000 2.63728000
O 17.46320000 19.76550000 11.41180000
H 17.91180000 18.96900000 8.12274000
H 16.88260000 21.44620000 11.89930000
O 16.67030000 15.58770000 3.14095000
H 16.48970000 15.18660000 1.29178000
H 15.60670000 14.55610000 4.23637000
O 21.13850000 12.67530000 15.49630000
H 20.98050000 10.92400000 15.86680000
H 19.70010000 13.42720000 16.43140000
O 19.33820000 11.65070000 22.35480000
H 18.30480000 11.67830000 20.60870000
H 19.17080000 13.52640000 22.34760000
O 1.56991000 18.66130000 7.19209000
H 1.60462000 19.53850000 5.52334000
H 0.04173200 20.10740000 8.15360000
O 5.10917000 11.94440000 13.91490000
H 4.60085000 10.59200000 12.71540000
H 4.02797000 13.16200000 13.53570000
O 14.34140000 14.22750000 21.50890000
H 14.45450000 15.59700000 20.20100000
H 13.77770000 12.75790000 20.25410000
O 8.55901000 13.49280000 10.82240000
H 7.61905000 13.10540000 12.44480000
H 9.05074000 11.85660000 10.03330000
O 9.21326000 9.51138000 20.62660000
H 9.03077000 7.68807000 20.08570000
H 8.09081000 10.45610000 19.54610000
O 8.53832000 4.75800000 3.38231000
H 8.14638000 7.08155000 1.03824000
H 10.33100000 4.21722000 3.11892000
O 17.17400000 16.14430000 14.80100000
H 16.67040000 14.39130000 13.80350000
H 16.03220000 18.12090000 12.62320000
O 20.82180000 13.49230000 5.37497000
H 21.92950000 13.81930000 7.11377000
H 19.18600000 14.23940000 5.67443000
O 13.55790000 9.69292000 18.33460000
H 12.41310000 9.43504000 16.92520000
H 12.23800000 9.46597000 19.62220000
O 16.22870000 5.04685000 17.74330000
H 14.65200000 3.87226000 17.97790000
H 15.23060000 6.40246000 17.15330000
    
    &END COORD
  &END SUBSYS
  &DFT
    BASIS_SET_FILE_NAME  BASIS_SET
    POTENTIAL_FILE_NAME  GTH_POTENTIALS
    &QS
      EPS_DEFAULT 1.0E-10
    &END QS
    &MGRID
      NGRIDS 4
      CUTOFF 135
      REL_CUTOFF 115
    &END MGRID
    &XC
      &XC_FUNCTIONAL PADE
      &END XC_FUNCTIONAL
    &END XC
    &SCF
      SCF_GUESS ATOMIC
      EPS_SCF 1.0E-7
      MAX_SCF 300
      &DIAGONALIZATION  ON
        ALGORITHM STANDARD
      &END DIAGONALIZATION
      &MIXING  T
        METHOD BROYDEN_MIXING
        ALPHA 0.4
        NBROYDEN 8
      &END MIXING
    &END SCF
  &END DFT
  &PRINT
    &FORCES ON
    &END FORCES
  &END PRINT
&END FORCE_EVAL
