&GLOBAL
  PROJECT H2O_bulk
  RUN_TYPE ENERGY_FORCE
  PRINT_LEVEL LOW
&END GLOBAL
&FORCE_EVAL
  METHOD Quickstep
  &SUBSYS
    &KIND H
      ELEMENT   H
      BASIS_SET DZVP-GTH-PBE
      POTENTIAL GTH-PBE-q1
    &END KIND
    &KIND O
      ELEMENT   O
      BASIS_SET DZVP-GTH-PBE
      POTENTIAL GTH-PBE-q6
    &END KIND
    &CELL
      A     24.57209 0.0 0.0
      B     0.0 24.57209 0.0
      C     0.0 0.0 24.57209
    &END CELL
    &COORD

O 6.67758000 11.41110000 4.47257000
H 7.78874000 12.79870000 4.08062000
H 5.20761000 11.49690000 3.37138000
O 20.69150000 22.39240000 15.44360000
H 19.94350000 24.06050000 15.48390000
H 19.87290000 21.37760000 16.76670000
O 8.66386000 18.30870000 14.22080000
H 10.26670000 17.47610000 13.84130000
H 8.53301000 18.01900000 16.01870000
O 22.58330000 1.61791000 7.50664000
H 22.47680000 1.60171000 5.67769000
H 21.61170000 0.18182600 8.12240000
O 13.92830000 16.88810000 19.64840000
H 14.24910000 15.14000000 20.14460000
H 12.72860000 17.51420000 20.87870000
O 2.78296000 6.66213000 15.89100000
H 2.27905000 5.61369000 14.48530000
H 3.45920000 5.42136000 17.09500000
O 9.83107000 2.51141000 22.26350000
H 8.73292000 3.88401000 21.85780000
H 8.69128000 1.19459000 22.88100000
O 6.46884000 15.40310000 18.59990000
H 5.36718000 14.95940000 17.19910000
H 7.04339000 13.77870000 19.26980000
O 10.13090000 17.73700000 24.05630000
H 9.29120000 16.43610000 0.45041000
H 11.81740000 17.09130000 23.91800600
O 18.23660000 15.85870000 9.16058000
H 18.99650000 14.20490000 11.39410000
H 16.53440000 15.54160000 8.61391000
O 14.17920000 21.72290000 10.51540000
H 14.19570000 19.93580000 10.98570000
H 14.83610000 21.82470000 8.83470000
O 3.64353000 17.67810000 11.56100000
H 3.76450000 18.85470000 12.99720000
H 5.37619000 17.44230000 11.04640000
O 0.46256300 19.98180000 5.54702000
H 2.06423000 20.87130000 5.54777000
H 24.54690000 19.89110000 7.30360000
O 3.03501000 11.44190000 24.07140000
H 1.86747000 10.16640000 0.09415500
H 3.17198000 11.07820000 22.26770000
O 4.96422000 3.14785000 18.73750000
H 3.57667000 2.14234000 19.40900000
H 5.53046000 2.23627000 17.25390000
O 16.04600000 6.02278000 10.02530000
H 15.42260000 4.98958000 11.41220000
H 17.77500000 6.48431000 10.54670000
O 3.51711000 4.10170000 4.27236000
H 4.63188000 5.06354000 3.16530000
H 2.51351000 3.12267000 3.11624000
O 17.55770000 4.06906000 0.55035400
H 15.93640000 3.77989000 1.32068000
H 17.53930000 3.11329000 23.58347700
O 2.46995000 2.08409000 12.27500000
H 4.18670000 2.17460000 11.66440000
H 1.46922000 1.65769000 10.81600000
O 13.89940000 6.83291000 4.33996000
H 15.30470000 6.79372000 5.52588000
H 12.56740000 6.04376000 5.19071000
O 0.08611000 10.04590000 19.27760000
H 0.67763000 8.92566000 17.93260000
H 23.20090000 9.22289000 20.01730000
O 16.31240000 12.30390000 21.17180000
H 16.14300000 11.60700000 22.86580000
H 17.94520000 13.12400000 21.17590000
O 19.91310000 12.97380000 12.94130000
H 21.13940000 11.75100000 12.22680000
H 18.66220000 12.00800000 13.96490000
O 14.23820000 23.58620000 15.45610000
H 15.69260000 23.43450000 16.58470000
H 14.85400000 23.47560000 13.75140000
O 9.39295000 19.58550000 8.48946000
H 8.74161000 18.56910000 9.86156000
H 10.90260000 20.31340000 9.25815000
O 2.62151000 8.80726000 6.09963000
H 1.77351000 7.60894000 5.04023000
H 4.42587000 8.30154000 5.99895000
O 9.07435000 14.88490000 9.90271000
H 9.89273000 13.81660000 11.25360000
H 10.52310000 15.62910000 8.83404000
O 6.75004000 6.27953000 1.23168000
H 7.11682000 7.87214000 2.12146000
H 8.19141000 5.20153000 1.50711000
O 19.47990000 7.27355000 5.69871000
H 18.41500000 7.04280000 7.14479000
H 20.38940000 8.79849000 6.05764000
O 7.18967000 23.57640000 15.18190000
H 6.26165000 22.52520000 13.94580000
H 8.10529000 22.31280000 16.12680000
O 0.49096600 0.61362800 20.37330000
H 0.92750600 24.27840000 21.93530000
H 24.15748000 23.94190000 19.38490000
O 2.35724000 15.53460000 3.72106000
H 3.74676000 14.87120000 4.84640000
H 1.70438000 17.17800000 4.18925000
O 12.02960000 7.04031000 19.42550000
H 12.71780000 5.58066000 20.35400000
H 13.34100000 8.30675000 19.43550000
O 21.62630000 19.85690000 1.49679000
H 22.21280000 20.58410000 3.07439000
H 20.84140000 18.26160000 2.05449000
O 16.66400000 21.53210000 20.20280000
H 15.99940000 19.90160000 19.68370000
H 18.40520000 21.59130000 19.67210000
O 20.74040000 14.77660000 3.79634000
H 20.24220000 14.82130000 5.57127000
H 22.54450000 14.94700000 3.64140000
O 14.21360000 19.00540000 4.63572000
H 12.40570000 19.00760000 4.88028000
H 14.55000000 20.66820000 3.87237000
O 15.68910000 9.93232000 15.17230000
H 16.37420000 8.39032000 14.50780000
H 13.80670000 10.03720000 14.98120000
O 3.81650000 12.89400000 13.47500000
H 3.69051000 14.53390000 12.68750000
H 5.26899000 12.03120000 12.79360000
O 12.07610000 14.27580000 3.16402000
H 12.83650000 15.78250000 3.82073000
H 13.19550000 13.87380000 1.80380000
O 15.88000000 1.18292000 6.63830000
H 15.08060000 0.09171000 5.41931000
H 14.62590000 2.22485000 7.42841000
O 22.15680000 19.21170000 20.34400000
H 21.95170000 17.43450000 19.93480000
H 21.42790000 19.37640000 22.00330000
O 20.89510000 13.55390000 18.50970000
H 20.96350000 13.97710000 16.74700000
H 22.47230000 12.61390000 18.78490000
O 13.41270000 16.78190000 13.74030000
H 13.34790000 15.55240000 15.07760000
H 13.97400000 18.32200000 14.54450000
O 8.05899000 10.55650000 21.33170000
H 8.70332000 8.86895000 21.02950000
H 6.91595000 10.42050000 22.72560000
O 19.50250000 3.66621000 16.24330000
H 19.83370000 4.97367000 14.95820000
H 21.07990000 3.55498000 17.11000000
O 21.49850000 5.21217000 21.10600000
H 22.51450000 3.75977000 21.49100000
H 19.74050000 4.90361000 21.54000000
O 21.12200000 5.50204000 11.63550000
H 21.14130000 4.20740000 10.35460000
H 22.54700000 6.59132000 11.40080000
O 13.87080000 11.48300000 8.41355000
H 14.17790000 9.97681000 9.39660000
H 15.12920000 11.43550000 7.09874000
O 16.73500000 23.05270000 1.20177000
H 17.78030000 21.56330000 1.05790000
H 15.92990000 23.17460000 24.14300000
O 22.54230000 2.71260000 2.47270000
H 22.21190000 3.82902000 1.07442000
H 21.24380000 1.44758000 2.28695000
O 11.06680000 11.12020000 14.71910000
H 10.48930000 10.14010000 13.23750000
H 9.95706000 10.58940000 16.06330000
O 1.79238000 21.93880000 14.21480000
H 2.18148000 23.58880000 13.44390000
H 0.89549800 22.45120000 15.71850000
O 12.48180000 4.67866000 14.54780000
H 11.79770000 3.28272000 15.49780000
H 13.57770000 5.45482000 15.77060000
O 4.72285000 22.93420000 6.63251000
H 4.06307000 0.03792400 6.39792000
H 6.45338000 23.07120000 7.14371000
O 20.91320000 21.42570000 9.48068000
H 21.50770000 21.00460000 11.16240000
H 19.70680000 20.12750000 9.03423000
O 8.24013000 23.18340000 0.51285000
H 9.73808000 22.36970000 24.48436300
H 6.87127000 22.06310000 0.05488000
O 7.30041000 4.59812000 8.66996000
H 8.30321000 3.87375000 7.32876000
H 5.59466000 4.62318000 7.99152000
O 17.42040000 11.64130000 1.85946000
H 18.54330000 10.26720000 1.56978000
H 18.55040000 12.92080000 2.56870000
O 23.83910000 10.22140000 11.09800000
H 0.28660900 11.70430000 11.52430000
H 0.45621000 9.29561000 10.07840000
O 4.34718000 17.34550000 23.95030000
H 4.95511000 16.54570000 22.46990000
H 3.41966000 16.36230000 0.65061000
O 10.21850000 2.15793000 4.63703000
H 10.84960000 0.98936100 5.89019000
H 9.02348000 1.19272000 3.62548000
O 2.93712000 22.16850000 24.40008900
H 2.57987000 20.40330000 24.05400000
H 3.00469000 22.28350000 1.64630000
O 7.36985000 9.52398000 10.50770000
H 8.25590000 12.92640000 8.91343000
H 8.16279000 8.16221000 9.50901000
    
    &END COORD
  &END SUBSYS
  &DFT
    BASIS_SET_FILE_NAME  BASIS_SET
    POTENTIAL_FILE_NAME  GTH_POTENTIALS
    &QS
      EPS_DEFAULT 1.0E-10
    &END QS
    &MGRID
      NGRIDS 4
      CUTOFF 135
      REL_CUTOFF 115
    &END MGRID
    &XC
      &XC_FUNCTIONAL PADE
      &END XC_FUNCTIONAL
    &END XC
    &SCF
      SCF_GUESS ATOMIC
      EPS_SCF 1.0E-7
      MAX_SCF 300
      &DIAGONALIZATION  ON
        ALGORITHM STANDARD
      &END DIAGONALIZATION
      &MIXING  T
        METHOD BROYDEN_MIXING
        ALPHA 0.4
        NBROYDEN 8
      &END MIXING
    &END SCF
  &END DFT
  &PRINT
    &FORCES ON
    &END FORCES
  &END PRINT
&END FORCE_EVAL
