&GLOBAL
  PROJECT H2O_bulk
  RUN_TYPE ENERGY_FORCE
  PRINT_LEVEL LOW
&END GLOBAL
&FORCE_EVAL
  METHOD Quickstep
  &SUBSYS
    &KIND H
      ELEMENT   H
      BASIS_SET DZVP-GTH-PBE
      POTENTIAL GTH-PBE-q1
    &END KIND
    &KIND O
      ELEMENT   O
      BASIS_SET DZVP-GTH-PBE
      POTENTIAL GTH-PBE-q6
    &END KIND
    &CELL
      A     25.86143 0.0 0.0
      B     0.0 25.86143 0.0
      C     0.0 0.0 25.86143
    &END CELL
    &COORD

O 8.10295000 16.46970000 9.96422000
H 5.97234000 15.92800000 9.28805000
H 8.32840000 17.83470000 9.25660000
O 23.99890000 22.11950000 18.36680000
H 23.86750000 21.11760000 19.47360000
H 22.90350000 23.26460000 18.19120000
O 4.12049000 14.59820000 7.40359000
H 3.29367000 13.78040000 5.74189000
H 3.58776000 13.77510000 8.71947000
O 24.32180000 16.96740000 13.43070000
H 22.74780000 17.74400000 14.27230000
H 25.28580000 16.69880000 14.78050000
O 10.45490000 10.52800000 19.13670000
H 11.34290000 9.09801000 19.25140000
H 9.60586000 10.48040000 17.80890000
O 14.47980000 23.75370000 7.92680000
H 12.93660000 24.68350000 8.32419000
H 13.97520000 22.23600000 8.06748000
O 14.72060000 9.32029000 15.01740000
H 14.37830000 10.80470000 15.43320000
H 16.13010000 9.32231000 13.74830000
O 2.35461000 0.25897000 1.26229000
H 2.30623000 25.39780000 2.71165000
H 1.97329000 24.86460000 0.07952300
O 9.44870000 10.75190000 13.77690000
H 9.84477000 9.07385000 14.33930000
H 9.69105000 10.70540000 12.14960000
O 3.17239000 21.90850000 23.42500000
H 3.55498000 21.91930000 21.78570000
H 4.40316000 21.44170000 24.37510000
O 0.22349700 19.68180000 9.27404000
H 25.82981900 19.05240000 10.95130000
H 1.14846000 18.62610000 8.51566000
O 11.13050000 22.78320000 13.86290000
H 11.41810000 24.27470000 12.84750000
H 10.36090000 21.43030000 13.05590000
O 15.96280000 17.37110000 17.36310000
H 16.05360000 17.90990000 15.71780000
H 17.60300000 17.14450000 18.20540000
O 23.82670000 8.47640000 10.67870000
H 22.66800000 9.84617000 10.19680000
H 25.02210000 8.23665000 9.18773000
O 21.10420000 0.96241000 17.26580000
H 22.07450000 2.37564000 17.42790000
H 19.28500000 1.13838000 15.90040000
O 4.50090000 14.67010000 25.83780000
H 5.92162000 13.30010000 25.56790000
H 3.75713000 15.79920000 23.36280000
O 9.79546000 14.11830000 1.96703000
H 8.48423000 15.08580000 1.50742000
H 11.11580000 14.40120000 0.84278100
O 6.68814000 23.79110000 7.48646000
H 4.99866000 23.24160000 7.85225000
H 7.01679000 23.76280000 5.73642000
O 12.15580000 4.14552000 1.56838000
H 12.28330000 4.41998000 3.38593000
H 9.62829000 4.00989000 0.99987400
O 20.86200000 17.55600000 7.36647000
H 23.20750000 18.79260000 7.24564000
H 19.64950000 18.31740000 8.17296000
O 9.24245000 6.85885000 9.19932000
H 9.11287000 6.84898000 7.41870000
H 7.74220000 7.73745000 9.87592000
O 25.78400000 5.33981000 1.48877000
H 0.57737000 3.17322000 0.81566800
H 0.54087000 6.35266000 25.83775100
O 5.56542000 3.78132000 24.75460000
H 4.93531000 2.51075000 25.58200000
H 5.51399000 3.20621000 23.32620000
O 14.62260000 13.22600000 5.03053000
H 15.19620000 13.08210000 3.57262000
H 12.90000000 13.23220000 4.98770000
O 4.32900000 21.74590000 18.53620000
H 4.73492000 20.65040000 17.65090000
H 3.67797000 22.77950000 17.40140000
O 4.50367000 2.22714000 19.23260000
H 3.00282000 2.72576000 18.06370000
H 4.12961000 0.66951700 19.79420000
O 17.58400000 19.67620000 12.61300000
H 16.09250000 18.77500000 12.14720000
H 18.25000000 20.46050000 11.11300000
O 10.34760000 20.11470000 5.90483000
H 9.99205000 19.41150000 4.57851000
H 10.94430000 21.60410000 5.35257000
O 19.20700000 25.59700000 8.45589000
H 19.30040000 24.48350000 7.12727000
H 17.36300000 25.01970000 9.46670000
O 20.04030000 4.35039000 10.77360000
H 20.52810000 2.90427000 9.88806000
H 21.44370000 5.25042000 11.20400000
O 25.26690000 10.44380000 5.29443000
H 23.37240000 11.00600000 4.58489000
H 25.47550000 8.95381000 4.37717000
O 24.23740000 6.81444000 22.61910000
H 23.42920000 5.84868000 19.11380000
H 23.32390000 8.21737000 23.11430000
O 14.81980000 2.70153000 14.23670000
H 13.92170000 1.75232000 12.98480000
H 15.49470000 4.21028000 13.04040000
O 22.85850000 16.30110000 2.69743000
H 21.89630000 14.34720000 2.51626000
H 21.72780000 17.45100000 3.34089000
O 15.76620000 24.05060000 22.81760000
H 17.36360000 24.65380000 22.87870000
H 15.51710000 23.37220000 21.03610000
O 15.59860000 3.41438000 4.72058000
H 17.27820000 3.82700000 4.71748000
H 15.59920000 2.10674000 5.47846000
O 10.66890000 15.08730000 17.36760000
H 11.98490000 16.07060000 17.70960000
H 11.16360000 13.93790000 18.74860000
O 18.30920000 8.60150000 7.44917000
H 18.69440000 6.71046000 8.42079000
H 18.76850000 10.84750000 8.61920000
O 7.60881000 19.04500000 14.04130000
H 8.51138000 18.52310000 15.16970000
H 7.53545000 17.52140000 12.55000000
O 1.08394000 23.22980000 5.90154000
H 0.31457600 22.21100000 4.75408000
H 0.78429500 22.22490000 7.54161000
O 17.32550000 12.75520000 19.50860000
H 16.66290000 11.44230000 18.35810000
H 16.39700000 12.79440000 21.07760000
O 10.36930000 0.99066300 10.38950000
H 10.34620000 2.85420000 10.30470000
H 8.38536000 0.02509300 9.48044000
O 7.06323000 4.62018000 4.35246000
H 5.87891000 5.17731000 5.59184000
H 6.31935000 4.77144000 3.00822000
O 18.25670000 9.98209000 23.93310000
H 17.27320000 8.85351000 25.09720000
H 17.48190000 9.34991000 22.22380000
O 3.27956000 7.27054000 13.19540000
H 2.76764000 6.10412000 14.29010000
H 2.26518000 8.50557000 13.11720000
O 20.68520000 11.61280000 3.06762000
H 16.98780000 8.40369000 6.69173000
H 21.04820000 10.51120000 1.81152000
O 14.92790000 23.74630000 17.16800000
H 13.83090000 25.07170000 17.59860000
H 13.21800000 22.09040000 16.07010000
O 0.74622800 14.89740000 18.86070000
H 2.29814000 14.49240000 18.60490000
H 0.69722000 15.97890000 20.07890000
O 12.51030000 24.74210000 1.26941000
H 11.92190000 0.58397000 1.32301000
H 14.17220000 24.65420000 0.65805400
O 25.26010000 18.57060000 23.10730000
H 0.57387000 19.72550000 23.54950000
H 24.86080000 17.89460000 24.42790000
O 8.57389000 20.79440000 25.66150000
H 8.78964000 21.34810000 24.01530000
H 9.14508000 19.28610000 25.74410000
O 22.30610000 5.69552000 17.11260000
H 22.29070000 7.67519000 17.49350000
H 22.38000000 5.60028000 14.96900000
O 22.66480000 11.23710000 17.99860000
H 20.97550000 11.64350000 18.45990000
H 23.86680000 12.21790000 19.05860000
O 3.37822000 8.15062000 19.37750000
H 1.05219000 8.21160000 20.84090000
H 4.53885000 7.89097000 20.70530000
O 19.20210000 12.72060000 9.99438000
H 17.80640000 13.26590000 10.84730000
H 20.29170000 13.97870000 8.61249000
O 14.72620000 16.03180000 9.79418000
H 13.18990000 15.54400000 9.29799000
H 15.69610000 16.00710000 8.46930000
O 5.51563000 14.17980000 19.88310000
H 5.46010000 12.31500000 19.89190000
H 6.72038000 14.60720000 19.04580000
O 2.18172000 18.44670000 3.02094000
H 3.43651000 17.60740000 2.14652000
H 0.80397800 17.31210000 3.27460000
O 17.43340000 4.84176000 19.86180000
H 18.40960000 3.03473000 19.69600000
H 16.38850000 4.79369000 18.53450000
O 6.66171000 9.67041000 25.49890000
H 5.60208000 9.62564000 23.97730000
H 9.34113000 7.97087000 24.80270000
O 2.96540000 5.40362000 7.88674000
H 3.54299000 3.97667000 7.04973000
H 3.56759000 5.17493000 9.56667000
O 12.63240000 16.04640000 23.31540000
H 12.60620000 14.40910000 23.17820000
H 14.07860000 16.80240000 23.03880000
O 17.50290000 18.50570000 22.38510000
H 18.48360000 17.41540000 23.17210000
H 17.65520000 20.06530000 23.26780000
O 12.20900000 6.11982000 22.07820000
H 12.98160000 5.24662000 24.32640000
H 13.76770000 6.61086000 21.03240000
    
    &END COORD
  &END SUBSYS
  &DFT
    BASIS_SET_FILE_NAME  BASIS_SET
    POTENTIAL_FILE_NAME  GTH_POTENTIALS
    &QS
      EPS_DEFAULT 1.0E-10
    &END QS
    &MGRID
      NGRIDS 4
      CUTOFF 135
      REL_CUTOFF 115
    &END MGRID
    &XC
      &XC_FUNCTIONAL PADE
      &END XC_FUNCTIONAL
    &END XC
    &SCF
      SCF_GUESS ATOMIC
      EPS_SCF 1.0E-7
      MAX_SCF 300
      &DIAGONALIZATION  ON
        ALGORITHM STANDARD
      &END DIAGONALIZATION
      &MIXING  T
        METHOD BROYDEN_MIXING
        ALPHA 0.4
        NBROYDEN 8
      &END MIXING
    &END SCF
  &END DFT
  &PRINT
    &FORCES ON
    &END FORCES
  &END PRINT
&END FORCE_EVAL
