&GLOBAL
  PROJECT H2O_bulk
  RUN_TYPE ENERGY_FORCE
  PRINT_LEVEL LOW
&END GLOBAL
&FORCE_EVAL
  METHOD Quickstep
  &SUBSYS
    &KIND H
      ELEMENT   H
      BASIS_SET DZVP-GTH-PBE
      POTENTIAL GTH-PBE-q1
    &END KIND
    &KIND O
      ELEMENT   O
      BASIS_SET DZVP-GTH-PBE
      POTENTIAL GTH-PBE-q6
    &END KIND
    &CELL
      A     25.05544 0.0 0.0
      B     0.0 25.05544 0.0
      C     0.0 0.0 25.05544
    &END CELL
    &COORD

O 5.51968000 2.09696000 17.22220000
H 4.03054000 2.75992000 17.96590000
H 4.55925000 0.63713700 16.85960000
O 16.06620000 14.51150000 9.18489000
H 15.42450000 15.81790000 8.21980000
H 15.06830000 13.10100000 9.08947000
O 5.90880000 15.64700000 14.26610000
H 5.93792000 14.06130000 13.22100000
H 4.49507000 16.41290000 13.76050000
O 12.43260000 23.59070000 23.07900000
H 11.60740000 24.23720000 21.72500000
H 14.01500000 23.40630000 22.55610000
O 24.84270000 3.31414000 1.99355000
H 24.48760000 1.68219000 2.02855000
H 0.07916000 4.38367000 3.34294000
O 7.29351000 7.15895000 7.35897000
H 5.99968000 6.09702000 7.58232000
H 6.93008000 8.38405000 8.54905000
O 21.02380000 12.38610000 10.43590000
H 19.87010000 13.77580000 9.95896000
H 20.31470000 12.61720000 12.05210000
O 3.36612000 10.04110000 1.08549000
H 2.17999000 9.86623000 24.95006300
H 4.52960000 9.02735000 0.42245300
O 15.77890000 20.50060000 7.72410000
H 15.40350000 19.09290000 6.71863000
H 14.44310000 20.29450000 8.90274000
O 12.24840000 7.49240000 18.08850000
H 13.82240000 7.35204000 18.76780000
H 11.11500000 8.30110000 19.18570000
O 13.25090000 0.29386000 12.27430000
H 12.62540000 24.33730000 10.77490000
H 12.17920000 24.77090000 13.56020000
O 22.82110000 16.04920000 20.17350000
H 23.91400000 14.58390000 20.70720000
H 21.34800000 15.74970000 21.10570000
O 16.05560000 9.77883000 3.12098000
H 17.23040000 9.21228000 4.21026000
H 17.15750000 10.19060000 1.72029000
O 0.75254600 9.73287000 6.87526000
H 2.19030000 10.13640000 7.80766000
H 1.77010000 9.57137000 5.40396000
O 3.90710000 22.83070000 14.16940000
H 5.45124000 22.45770000 13.74790000
H 2.78417000 21.60820000 14.06130000
O 18.14480000 16.29110000 24.55640700
H 17.58170000 16.66240000 1.02210000
H 17.41340000 14.80700000 24.17901100
O 11.87990000 16.18910000 14.32450000
H 10.77180000 16.33090000 15.54300000
H 12.28240000 14.68470000 13.61720000
O 14.00760000 3.84174000 6.86497000
H 12.22050000 3.96561000 7.14283000
H 13.53300000 2.65754000 5.12941000
O 6.72702000 3.22960000 0.60565100
H 7.46333000 4.55496000 1.36669000
H 6.09263000 2.22562000 1.87074000
O 1.05485000 16.60030000 10.72880000
H 1.30395000 18.31860000 11.23200000
H 24.80136400 15.79020000 11.44800000
O 24.04760000 11.10520000 22.80400000
H 22.40780000 10.15290000 23.26860000
H 24.21980000 10.30560000 21.31270000
O 4.71713000 18.34720000 22.08680000
H 3.43214000 18.75320000 21.08840000
H 4.19475000 17.92290000 23.75870000
O 18.66340000 23.45820000 13.74140000
H 17.18110000 24.11980000 13.32890000
H 19.29320000 23.09450000 12.15890000
O 9.60845000 19.21070000 24.68490000
H 10.32990000 20.67900000 24.11840000
H 8.01269000 19.34580000 24.08270000
O 11.96690000 12.51020000 5.79401000
H 13.09780000 11.50760000 5.01508000
H 11.12440000 12.91310000 4.29244000
O 9.85006000 7.12637000 2.28991000
H 11.84920000 8.28149000 3.26546000
H 9.20427000 7.19172000 4.08839000
O 6.56433000 0.14596000 5.45673000
H 7.04499000 23.61200000 6.11135000
H 5.65874000 1.54016000 6.17669000
O 16.61740000 17.86340000 16.11150000
H 16.90100000 19.14240000 15.13190000
H 14.93140000 17.15100000 15.97800000
O 19.93600000 13.79330000 15.57120000
H 21.02360000 13.98260000 16.98160000
H 18.45520000 14.83510000 15.88600000
O 3.49034000 2.96354000 9.14656000
H 4.90224000 3.59365000 10.14030000
H 2.05272000 3.02111000 10.04520000
O 17.73370000 9.09762000 18.02970000
H 17.99010000 10.47320000 16.98040000
H 18.88940000 7.87100000 18.13780000
O 20.34220000 8.34398000 6.08129000
H 21.72090000 8.22292000 5.14321000
H 20.67190000 9.70015000 7.06654000
O 11.38500000 11.81590000 10.71720000
H 11.29090000 11.78180000 9.01792000
H 12.57060000 10.50860000 10.82510000
O 16.97310000 21.02710000 21.45870000
H 17.24100000 19.98150000 22.79390000
H 17.00910000 20.27030000 19.92480000
O 21.99330000 5.76877000 18.04250000
H 23.67230000 6.30372000 17.98030000
H 22.24590000 4.07588000 18.04190000
O 14.53490000 5.09616000 23.57730000
H 12.94960000 4.58290000 23.98520000
H 14.88560000 4.87429000 21.90080000
O 1.56551000 9.62531000 17.51660000
H 1.18347000 9.72831000 15.85350000
H 3.33904000 9.76199000 17.59280000
O 23.76830000 4.05670000 12.02830000
H 23.70840000 3.19896000 13.45010000
H 22.19100000 3.23948000 11.40900000
O 15.87970000 10.98970000 22.68850000
H 14.36990000 10.63190000 22.08850000
H 17.23930000 10.43110000 21.20730000
O 5.43517000 10.65470000 12.15710000
H 5.65612000 9.79474000 13.58750000
H 3.68514000 10.56840000 11.65590000
O 7.74711000 3.14932000 12.70650000
H 9.03257000 4.33940000 12.55490000
H 6.34479000 3.17677000 14.62080000
O 20.10830000 23.28640000 8.19012000
H 19.89040000 24.89560000 7.51968000
H 18.17370000 22.82510000 7.53493000
O 19.03550000 4.03846000 8.78755000
H 19.39280000 5.64219000 8.31224000
H 17.49490000 3.49102000 8.46709000
O 10.18120000 10.50900000 21.64000000
H 9.69323000 12.25360000 21.56000000
H 9.32918000 10.37050000 23.10870000
O 7.89524000 14.91060000 19.47410000
H 7.05271000 14.75820000 17.97850000
H 6.88113000 15.80740000 20.48340000
O 24.76980000 21.62090000 10.27680000
H 23.88690000 22.90950000 8.89585000
H 1.08966000 22.48970000 10.78690000
O 12.07040000 6.13693000 12.48530000
H 12.03770000 6.53036000 14.29400000
H 12.69730000 4.50232000 12.29210000
O 3.65904000 15.82840000 5.33066000
H 2.56720000 15.73610000 6.59176000
H 2.80711000 16.18510000 3.88576000
O 8.57415000 13.75570000 1.64710000
H 7.19286000 13.56050000 2.56992000
H 8.92633000 15.38510000 1.20840000
O 6.79240000 8.26069000 17.13770000
H 8.46029000 7.99606000 17.04910000
H 6.48432000 6.67028000 17.43510000
O 0.20346000 9.58955000 12.43900000
H 24.38710000 10.32400000 10.64970000
H 24.69860000 8.06632000 12.92310000
O 0.50276000 20.60700000 19.48500000
H 24.66930000 21.93970000 19.88550000
H 24.53440000 19.15940000 19.14650000
O 21.67510000 23.65870000 1.21130000
H 20.80560000 24.96560000 1.87347000
H 20.72750000 22.93310000 24.67353500
O 23.38040000 19.10280000 3.67886000
H 22.42480000 19.27050000 5.08571000
H 23.46430000 20.96580000 3.40703000
O 12.11900000 0.10456000 3.54496000
H 12.25910000 24.88230000 1.88906000
H 10.26070000 0.30726000 3.92467000
O 21.27600000 6.75747000 24.04800000
H 22.05210000 5.24491000 24.39630000
H 20.05680000 6.90093000 0.14866000
O 12.97700000 18.19950000 3.75669000
H 12.58580000 18.85600000 2.20350000
H 12.17490000 16.57300000 4.01296000
O 1.29655000 15.89710000 0.36209100
H 0.67068000 14.34110000 0.36051800
H 0.06542700 16.69400000 1.31046000
O 3.01188000 3.95845000 21.77270000
H 1.53636000 2.97042000 22.37850000
H 3.96745000 3.86607000 23.20630000
O 7.37111000 19.90810000 5.73673000
H 8.07004000 20.40090000 3.97112000
H 6.65230000 18.32990000 5.24346000
O 10.84620000 1.97715000 18.91900000
H 9.30707000 1.39324000 18.81390000
H 10.97000000 4.00437000 19.07590000
O 21.38380000 24.94280000 18.53610000
H 20.86970000 23.57970000 17.57900000
H 20.28010000 24.61770000 19.86650000
O 18.20060000 3.05866000 2.84740000
H 16.88810000 3.31908000 1.73147000
H 17.84140000 3.83273000 4.37548000
O 10.87210000 19.74400000 9.79620000
H 10.77430000 18.77060000 11.42620000
H 10.54110000 19.13520000 7.98413000
    
    &END COORD
  &END SUBSYS
  &DFT
    BASIS_SET_FILE_NAME  BASIS_SET
    POTENTIAL_FILE_NAME  GTH_POTENTIALS
    &QS
      EPS_DEFAULT 1.0E-10
    &END QS
    &MGRID
      NGRIDS 4
      CUTOFF 135
      REL_CUTOFF 115
    &END MGRID
    &XC
      &XC_FUNCTIONAL PADE
      &END XC_FUNCTIONAL
    &END XC
    &SCF
      SCF_GUESS ATOMIC
      EPS_SCF 1.0E-7
      MAX_SCF 300
      &DIAGONALIZATION  ON
        ALGORITHM STANDARD
      &END DIAGONALIZATION
      &MIXING  T
        METHOD BROYDEN_MIXING
        ALPHA 0.4
        NBROYDEN 8
      &END MIXING
    &END SCF
  &END DFT
  &PRINT
    &FORCES ON
    &END FORCES
  &END PRINT
&END FORCE_EVAL
