&GLOBAL
  PROJECT H2O_bulk
  RUN_TYPE ENERGY_FORCE
  PRINT_LEVEL LOW
&END GLOBAL
&FORCE_EVAL
  METHOD Quickstep
  &SUBSYS
    &KIND H
      ELEMENT   H
      BASIS_SET DZVP-GTH-PBE
      POTENTIAL GTH-PBE-q1
    &END KIND
    &KIND O
      ELEMENT   O
      BASIS_SET DZVP-GTH-PBE
      POTENTIAL GTH-PBE-q6
    &END KIND
    &CELL
      A     24.42002 0.0 0.0
      B     0.0 24.42002 0.0
      C     0.0 0.0 24.42002
    &END CELL
    &COORD

O 23.61640000 19.88839000 19.90634000
H 22.39820000 19.81277000 18.62714000
H 0.39048000 18.32760000 19.47084000
O 22.75398000 21.59908000 0.09677300
H 23.48688000 23.41368000 0.42422800
H 23.35938000 20.89538000 22.69393000
O 11.20060000 2.48777000 15.60840000
H 12.08270000 3.15870000 17.13230000
H 10.30380000 0.91942800 16.21360000
O 20.22554000 13.69952000 23.42415700
H 20.97586000 13.31602000 21.85731000
H 20.18072000 15.58182000 23.41624000
O 5.34529000 9.13388000 18.98310000
H 6.53387000 9.90658000 19.88710000
H 6.26133000 8.20828000 17.42520000
O 18.59343000 10.21250000 8.12026000
H 17.63637000 9.14202000 9.19252000
H 18.79712000 8.98280000 6.93768000
O 21.72588000 24.41580000 13.28710000
H 23.50518000 0.43738000 13.04820000
H 20.30868000 24.25230000 12.07730000
O 23.31970000 20.81574000 8.97124000
H 23.69062000 19.67214000 7.69902000
H 21.96799000 22.06804000 8.31414000
O 9.92398000 15.38924000 20.74100000
H 9.14448000 17.02144000 20.74190000
H 9.13208000 14.37294000 22.10950000
O 10.25140000 21.61584000 22.72364000
H 12.05200000 21.06814000 22.21164000
H 9.75069000 20.57294000 24.10754000
O 14.83622000 2.91764000 7.55377000
H 14.29732000 3.21010000 5.65823000
H 13.71722000 2.01349000 8.62864000
O 12.90602000 4.03118000 2.47886000
H 10.88342000 4.18038000 2.40356000
H 13.40952000 2.58168000 1.16636000
O 15.76620000 19.10854000 9.39612000
H 15.78870000 17.72184000 8.16992000
H 15.98360000 17.88554000 10.60152000
O 4.56408000 14.04430000 13.68778000
H 3.61248000 12.81110000 12.76288000
H 6.17208000 13.13780000 14.27018000
O 0.42402200 2.55157000 1.24232000
H 1.54288000 3.18508000 2.87459000
H 1.06613000 2.90934000 24.00426900
O 18.76634000 23.53920000 9.14748000
H 17.64684000 0.53168000 8.16808000
H 17.29514000 22.23170000 9.26248000
O 15.14814000 11.72570000 23.57130000
H 14.47824000 10.85950000 22.04390000
H 16.83874000 12.12180000 23.22070000
O 4.77982000 15.88816000 3.25272000
H 4.16812000 15.40516000 4.84932000
H 3.86762000 14.67906000 2.30782000
O 19.47106000 20.29960000 15.79788000
H 19.40466000 21.84040000 15.03138000
H 17.35266000 20.00220000 15.83568000
O 7.71296000 3.87532000 2.46830000
H 7.11456000 2.96942000 3.99185000
H 7.55936000 2.93462000 0.94849200
O 7.16048000 18.31320000 10.95322000
H 8.45328000 17.16570000 10.25762000
H 6.34368000 16.98400000 12.05182000
O 8.36582000 6.90424000 15.21156000
H 9.47152000 8.10351000 14.21446000
H 8.75492000 5.27207000 14.84776000
O 6.75942000 1.29951000 22.59655000
H 6.79493000 2.67987000 21.06995000
H 8.15800000 0.04664900 22.30334000
O 19.78648000 4.53599000 0.12098000
H 18.88368000 5.49129000 1.34278000
H 21.56888000 3.81050000 1.11358000
O 22.20109000 12.58376000 5.28468000
H 20.71196000 12.44826000 6.54128000
H 22.21549000 14.16806000 4.77638000
O 10.18930000 13.23788000 9.55721000
H 8.80932000 12.81008000 8.54604000
H 11.63300000 13.37768000 8.51894000
O 5.95682000 19.87220000 19.71120000
H 4.59152000 18.85210000 20.23090000
H 6.39952000 20.55350000 21.39990000
O 5.87178000 8.81838000 2.21826000
H 6.38688000 7.22608000 2.48006000
H 4.10008000 8.93388000 1.62356000
O 12.94100000 9.03658000 19.89520000
H 11.76270000 9.46438000 18.83700000
H 13.28470000 7.04658000 20.08880000
O 2.51304000 24.29014000 19.42260000
H 1.45767000 22.74474000 19.57880000
H 3.99582000 23.71854000 20.40740000
O 24.13248000 17.42020000 4.77831000
H 1.25927000 16.60300000 4.40156000
H 23.62950100 18.84030000 3.61645000
O 2.49013000 0.59358800 13.85180000
H 3.31337000 23.80241900 12.66570000
H 2.40916000 24.39251000 15.56680000
O 15.17674000 4.00696000 18.86844000
H 16.48394000 3.72576000 17.64464000
H 15.74754000 2.82276000 20.13974000
O 6.51440000 1.72726000 7.00512000
H 7.70685000 1.62396000 8.09102000
H 5.72668000 0.17186000 7.04362000
O 13.81934000 14.81338000 2.73718000
H 14.09974000 14.04848000 1.17860000
H 12.54844000 16.43098000 3.03839000
O 20.93360000 13.25088000 13.29320000
H 21.89590000 14.89558000 13.62780000
H 21.24520000 12.64208000 11.33380000
O 5.55412000 12.09922000 6.75034000
H 5.94612000 10.63182000 5.30392000
H 4.72912000 11.16742000 8.02774000
O 1.98094000 5.03170000 20.00470000
H 1.86834000 3.36496000 18.95250000
H 2.89944000 6.34035000 19.08880000
O 1.90272000 9.80902000 11.33388000
H 1.66932000 8.22022000 12.33098000
H 0.51362000 10.90842000 10.88068000
O 14.86840000 14.41600000 7.54798000
H 16.16460000 13.06730000 7.61678000
H 14.53720000 14.59610000 5.63728000
O 4.24992000 22.00300000 9.32398000
H 5.03492000 20.47067000 9.81908000
H 2.59072000 21.48681000 8.93128000
O 16.37878000 6.69901000 11.54868000
H 15.75978000 5.18455000 10.42678000
H 17.59458000 5.83106000 12.89048000
O 15.48535000 14.86404000 13.17792000
H 17.32387000 14.45014000 13.36472000
H 14.22222000 13.30124000 13.18862000
O 2.70776000 5.50362000 14.27972000
H 4.59296000 5.84542000 14.32062000
H 2.26976000 3.99472000 13.95092000
O 11.38400000 1.09726000 10.59760000
H 10.88800000 1.54519000 12.23570000
H 10.87090000 23.83694600 10.41470000
O 14.81684000 20.43645000 20.81738000
H 14.39734000 19.51220000 19.19898000
H 15.39694000 19.23017000 21.99378000
O 9.47416000 12.03402000 16.84900000
H 9.99959000 13.93192000 17.58934000
H 10.72020000 12.31522000 15.45620000
O 23.43740000 17.62310000 13.57960000
H 21.93270000 18.55340000 14.71620000
H 22.97540000 18.51180000 12.20360000
O 9.02342000 21.10380000 15.70671000
H 7.86944000 20.31800000 17.18953000
H 8.02817000 20.70880000 13.97112000
O 2.46418000 4.74676000 5.50388000
H 3.88028000 4.18836000 6.55238000
H 0.90478000 4.68826000 6.59838000
O 16.75946000 7.49670000 2.94654000
H 16.35001000 9.24695000 2.07135000
H 15.11498000 6.62244000 3.20920000
O 13.57340000 18.80934000 16.13290000
H 12.04770000 19.69054000 15.58140000
H 13.94270000 17.26304000 15.39260000
O 2.17837000 16.22530000 18.17098000
H 1.66428000 14.42670000 18.46978000
H 2.43226000 16.13390000 16.49468000
O 17.67588000 18.48738000 0.19439800
H 18.54718000 19.90258000 1.15452000
H 16.87808000 17.63908000 1.73383000
O 21.06900000 11.35320000 18.45554000
H 21.02340000 9.47415000 19.32764000
H 20.72140000 11.97320000 16.94224000
O 9.17582000 18.43978000 2.95604000
H 7.42202000 17.55138000 2.96221000
H 9.61672000 19.18138000 4.68642000
O 11.14850000 21.41184000 7.57788000
H 12.66400000 20.22364000 7.38718000
H 11.24620000 22.47814000 6.22668000
O 1.66224000 11.91518000 1.49762000
H 0.26579300 11.48218000 2.47226000
H 1.26030000 11.46868000 23.81326100
O 12.74962000 10.18222000 13.03050000
H 13.74162000 8.90552000 12.70430000
H 11.74482000 10.99732000 11.71560000
O 19.35642000 4.27285000 15.72270000
H 20.06062000 5.24582000 16.96050000
H 20.53256000 3.05121000 15.44830000
O 0.94488000 12.02692000 20.52245000
H 23.79180000 11.43762000 19.37717000
H 2.50478000 11.19202000 19.83279000
O 21.18160000 6.33180000 19.86918000
H 20.57980000 5.83794000 21.29678000
H 22.78790000 5.63547000 20.45888000
O 16.09540000 1.36958000 23.39218000
H 17.69850000 2.30758000 23.76008000
H 16.56630000 23.98670000 22.69038000
O 8.52842000 11.00310000 22.56330000
H 10.01012000 9.86502000 22.18950000
H 7.36422000 10.00860000 23.91520000
    
    &END COORD
  &END SUBSYS
  &DFT
    BASIS_SET_FILE_NAME  BASIS_SET
    POTENTIAL_FILE_NAME  GTH_POTENTIALS
    &QS
      EPS_DEFAULT 1.0E-10
    &END QS
    &MGRID
      NGRIDS 4
      CUTOFF 135
      REL_CUTOFF 115
    &END MGRID
    &XC
      &XC_FUNCTIONAL PADE
      &END XC_FUNCTIONAL
    &END XC
    &SCF
      SCF_GUESS ATOMIC
      EPS_SCF 1.0E-7
      MAX_SCF 300
      &DIAGONALIZATION  ON
        ALGORITHM STANDARD
      &END DIAGONALIZATION
      &MIXING  T
        METHOD BROYDEN_MIXING
        ALPHA 0.4
        NBROYDEN 8
      &END MIXING
    &END SCF
  &END DFT
  &PRINT
    &FORCES ON
    &END FORCES
  &END PRINT
&END FORCE_EVAL
