&GLOBAL
  PROJECT H2O_bulk
  RUN_TYPE ENERGY_FORCE
  PRINT_LEVEL LOW
&END GLOBAL
&FORCE_EVAL
  METHOD Quickstep
  &SUBSYS
    &KIND H
      ELEMENT   H
      BASIS_SET DZVP-GTH-PBE
      POTENTIAL GTH-PBE-q1
    &END KIND
    &KIND O
      ELEMENT   O
      BASIS_SET DZVP-GTH-PBE
      POTENTIAL GTH-PBE-q6
    &END KIND
    &CELL
      A     23.84683 0.0 0.0
      B     0.0 23.84683 0.0
      C     0.0 0.0 23.84683
    &END CELL
    &COORD

O 5.81522000 20.67960000 22.06550000
H 7.50190000 20.06490000 21.32480000
H 4.40957000 19.18530000 21.71150000
O 19.55430000 1.43975000 3.99697000
H 20.62070000 2.95668000 3.74306000
H 20.54000000 0.05063000 5.01938000
O 13.38240000 0.94581600 13.35760000
H 11.67690000 0.72734700 12.29310000
H 13.03060000 2.48286000 14.55630000
O 12.89010000 17.91630000 9.79311000
H 14.51460000 18.03510000 10.37650000
H 12.90540000 18.89500000 8.21636000
O 16.79970000 13.15830000 15.75100000
H 17.66200000 11.76120000 14.48350000
H 18.21150000 13.24720000 16.92450000
O 23.30850000 11.85350000 22.81730000
H 1.10257000 11.12450000 23.26410000
H 23.26830000 13.53990000 23.72260000
O 9.39559000 13.82600000 9.95707000
H 8.41376000 15.41700000 9.94694000
H 10.92200000 14.37810000 10.10520000
O 16.07290000 19.60930000 3.01879000
H 17.05870000 18.89060000 4.41992000
H 16.68580000 21.24350000 2.91336000
O 17.71870000 20.45750000 11.83450000
H 19.04480000 21.54650000 11.55400000
H 18.05050000 19.28200000 13.12020000
O 2.67952000 7.96348000 5.12726000
H 3.78689000 8.17825000 6.66661000
H 1.71386000 6.41645000 4.96347000
O 15.60240000 12.99400000 7.14709000
H 14.54970000 12.03860000 5.72824000
H 16.39980000 11.68050000 7.98577000
O 23.53160000 16.39600000 16.01160000
H 22.31570000 16.66340000 15.06100000
H 0.99627000 16.28210000 14.68850000
O 6.84260000 5.13541000 11.44400000
H 7.16234000 5.49976000 13.32940000
H 8.60477000 4.63251000 10.88560000
O 11.66230000 8.35957000 3.04210000
H 10.36790000 7.13299000 2.58440000
H 13.39230000 7.39089000 3.13841000
O 20.93910000 12.34150000 18.49800000
H 22.07370000 13.50970000 17.49900000
H 21.61180000 12.36330000 20.09370000
O 2.17847000 22.67640000 0.92049800
H 3.73859000 21.75190000 0.29800800
H 1.11847000 23.34350000 23.16093300
O 2.46405000 12.99680000 11.98500000
H 2.58925000 13.60630000 13.69220000
H 2.96721000 11.18680000 12.32550000
O 7.02412000 16.00440000 4.91066000
H 6.42546000 14.17360000 4.25152000
H 7.90824000 16.62760000 3.40857000
O 16.06550000 6.09410000 2.92582000
H 17.16460000 5.76845000 4.35718000
H 16.73980000 6.53963000 1.33484000
O 0.71246300 1.28062000 14.55060000
H 0.54603300 2.09157000 16.06790000
H 2.64683000 0.86880800 14.57680000
O 4.13426000 2.00054000 4.62345000
H 3.90076000 0.40052900 5.47034000
H 2.75023000 1.89830000 3.22178000
O 13.17850000 21.43010000 17.10830000
H 13.39340000 22.70920000 15.86440000
H 14.88500000 21.33810000 17.97030000
O 11.13600000 19.76780000 21.56310000
H 12.19910000 20.66680000 20.13870000
H 11.50500000 21.11660000 22.91650000
O 22.75850000 7.74368000 16.06460000
H 23.11970000 6.29755000 17.09380000
H 22.18900000 9.05455000 17.44070000
O 3.96033000 4.75131000 21.97120000
H 5.40769000 3.54841000 22.28820000
H 4.93516000 6.41645000 22.10790000
O 12.20110000 0.92309200 5.21371000
H 12.77720000 1.40429000 6.65209000
H 10.83770000 2.15437000 4.77126000
O 8.42527000 2.46555000 22.41130000
H 9.67030000 1.15768000 22.95510000
H 4.53859000 22.25989000 21.76270000
O 7.02271000 11.32190000 14.91880000
H 6.23318000 10.96500000 13.28290000
H 7.96569000 12.86300000 14.49630000
O 6.94291000 20.22200000 10.60090000
H 5.31430000 19.52300000 9.71156000
H 7.99547000 19.10360000 11.33190000
O 9.16297000 1.00903000 9.64027000
H 7.78380000 22.16610000 9.93401000
H 10.11270000 0.31459300 8.36401000
O 4.12108000 19.28040000 14.95690000
H 5.85798000 18.92300000 14.99780000
H 4.18017000 20.86340000 14.14700000
O 23.81025200 17.13490000 22.73070000
H 0.76878400 17.02570000 20.98290000
H 1.26537000 17.50210000 0.06437000
O 18.77340000 9.74719000 0.22134500
H 17.28940000 10.66680000 0.70338500
H 20.30520000 11.03880000 23.34394000
O 22.94070000 22.38240000 20.79780000
H 23.19660000 20.89790000 21.38540000
H 21.01310000 22.22200000 21.20170000
O 18.57340000 4.99414000 21.04680000
H 20.29590000 4.18978000 20.37260000
H 19.11120000 6.51982000 21.70160000
O 17.23900000 7.02951000 8.32366000
H 17.18430000 5.22273000 8.78555000
H 18.85490000 7.31682000 7.75132000
O 22.50010000 20.71680000 6.04991000
H 23.38940000 19.64400000 4.87795000
H 21.02750000 19.50690000 6.06922000
O 21.11230000 0.17357000 10.86490000
H 21.62240000 22.94550000 9.33017000
H 22.18660000 23.46790000 12.07260000
O 3.13315000 17.93000000 9.22415000
H 2.40466000 16.61530000 10.14200000
H 2.34999000 17.84200000 7.74762000
O 10.98940000 19.50290000 5.54499000
H 11.55820000 18.59760000 4.11094000
H 11.45850000 21.13140000 5.07161000
O 15.89560000 2.15192000 9.15779000
H 17.21330000 1.27347000 9.39249000
H 15.31680000 1.95771000 10.55080000
O 3.78918000 9.38720000 0.70726900
H 3.35627000 9.00420000 2.39253000
H 4.70655000 10.73820000 0.66168700
O 3.66897000 16.30710000 19.51190000
H 3.71748000 17.25040000 17.96650000
H 3.74754000 14.37830000 19.08820000
O 12.98450000 0.56733100 0.50131900
H 14.77010000 0.79801300 0.74340500
H 12.38640000 0.85784000 2.23688000
O 17.67400000 7.89276000 13.86740000
H 18.95090000 6.81874000 14.52420000
H 17.93210000 7.86903000 11.95840000
O 14.66620000 5.87173000 17.17870000
H 15.38190000 6.52975000 16.05160000
H 16.31290000 5.25527000 17.91540000
O 8.05535000 5.27316000 4.82489000
H 6.36788000 4.36574000 4.61613000
H 8.14656000 5.81871000 6.57231000
O 23.51000000 3.41895000 19.62110000
H 1.25707000 3.97248000 20.39960000
H 23.84470000 1.67642000 19.48040000
O 2.48415000 7.89372000 12.44590000
H 1.30969000 7.41702000 13.87230000
H 3.90352000 6.75065000 12.53100000
O 18.63130000 18.54290000 22.36000000
H 19.74140000 17.07480000 22.57780000
H 17.54960000 18.55500000 23.83390000
O 17.58750000 18.98800000 17.47640000
H 17.09370000 17.78750000 16.10780000
H 17.21370000 17.96390000 19.08220000
O 11.54280000 14.90170000 22.53470000
H 11.64780000 16.68680000 22.49950000
H 11.14600000 14.43050000 20.61230000
O 8.12238000 11.94830000 1.00617000
H 9.38792000 12.73500000 23.76345200
H 9.14826000 11.27960000 2.54415000
O 7.00964000 9.45795000 8.40498000
H 6.38713000 8.92096000 9.87786000
H 8.34111000 11.48510000 8.88383000
O 2.27482000 15.70070000 3.01178000
H 4.04538000 16.21120000 3.26901000
H 2.27639000 15.23360000 4.69256000
O 14.83230000 11.98190000 1.28143000
H 13.44760000 11.02920000 0.26801800
H 14.35230000 13.65760000 1.05862000
O 18.38830000 0.31136400 22.88010000
H 18.89160000 2.18735000 22.58750000
H 18.68560000 0.39694900 0.71887000
O 9.76565000 5.05892000 16.59920000
H 9.17325000 5.44360000 18.39570000
H 11.55460000 5.08448000 16.95090000
O 3.80891000 11.70460000 18.19790000
H 4.57376000 9.87916000 18.25830000
H 4.94460000 12.26080000 16.86340000
O 5.45695000 0.96283300 17.47140000
H 5.99317000 21.40030000 19.28360000
H 7.25269000 0.95122100 17.25920000
O 21.64790000 7.26635000 4.25186000
H 20.81980000 8.24488000 3.06677000
H 22.66030000 8.24550000 4.89524000
O 11.16250000 12.40110000 18.26190000
H 12.31230000 11.03600000 18.84600000
H 9.73882000 11.29340000 17.92350000
O 18.21680000 17.02000000 7.25108000
H 16.94890000 15.46220000 7.36464000
H 18.19980000 17.90510000 9.03826000
O 9.03954000 17.40720000 15.54150000
H 10.05010000 18.31380000 16.90880000
H 10.28610000 16.75160000 14.20010000
    
    &END COORD
  &END SUBSYS
  &DFT
    BASIS_SET_FILE_NAME  BASIS_SET
    POTENTIAL_FILE_NAME  GTH_POTENTIALS
    &QS
      EPS_DEFAULT 1.0E-10
    &END QS
    &MGRID
      NGRIDS 4
      CUTOFF 135
      REL_CUTOFF 115
    &END MGRID
    &XC
      &XC_FUNCTIONAL PADE
      &END XC_FUNCTIONAL
    &END XC
    &SCF
      SCF_GUESS ATOMIC
      EPS_SCF 1.0E-7
      MAX_SCF 300
      &DIAGONALIZATION  ON
        ALGORITHM STANDARD
      &END DIAGONALIZATION
      &MIXING  T
        METHOD BROYDEN_MIXING
        ALPHA 0.4
        NBROYDEN 8
      &END MIXING
    &END SCF
  &END DFT
  &PRINT
    &FORCES ON
    &END FORCES
  &END PRINT
&END FORCE_EVAL
