&GLOBAL
  PROJECT H2O_bulk
  RUN_TYPE ENERGY_FORCE
  PRINT_LEVEL LOW
&END GLOBAL
&FORCE_EVAL
  METHOD Quickstep
  &SUBSYS
    &KIND H
      ELEMENT   H
      BASIS_SET DZVP-GTH-PBE
      POTENTIAL GTH-PBE-q1
    &END KIND
    &KIND O
      ELEMENT   O
      BASIS_SET DZVP-GTH-PBE
      POTENTIAL GTH-PBE-q6
    &END KIND
    &CELL
      A     24.75166 0.0 0.0
      B     0.0 24.75166 0.0
      C     0.0 0.0 24.75166
    &END CELL
    &COORD

O 3.73578000 10.56330000 5.85964000
H 5.15075000 12.46510000 5.70982000
H 2.56863000 11.19670000 6.93946000
O 21.71630000 1.24446000 17.03680000
H 21.49590000 1.04006000 15.34680000
H 20.57380000 2.76827000 17.75960000
O 9.81627000 19.55250000 8.34799000
H 8.79892000 19.39830000 10.29770000
H 11.50920000 18.59990000 8.39880000
O 16.69140000 20.32230000 11.45190000
H 16.95180000 18.79190000 11.25320000
H 18.29020000 20.86710000 11.85600000
O 9.72075000 14.92890000 0.77268500
H 9.47121000 15.03840000 23.89360000
H 10.41450000 13.01350000 1.20658000
O 23.56010000 9.01824000 19.26780000
H 1.02391000 9.93458000 19.14510000
H 22.62970000 10.45100000 19.60410000
O 7.55421000 3.70137000 19.98620000
H 6.22524000 4.62970000 20.94380000
H 6.68828000 3.16355000 18.34120000
O 3.14005000 15.98520000 13.42030000
H 4.84804000 15.08130000 13.49520000
H 2.26624000 14.71540000 12.52240000
O 12.84130000 19.70610000 0.13236100
H 8.90323000 19.79690000 2.30794000
H 12.87120000 17.88940000 24.68742500
O 1.84406000 20.14580000 4.11970000
H 1.85785000 20.74720000 5.82961000
H 2.62171000 18.32570000 4.15727000
O 21.66460000 17.03820000 9.70956000
H 22.82910000 16.92570000 11.78040000
H 20.21290000 16.49600000 9.88530000
O 8.31430000 0.14432500 6.64838000
H 9.12599000 23.58820000 7.39102000
H 8.33082000 0.09733700 4.92560000
O 22.72330000 19.29730000 23.68210000
H 23.05300000 17.39830000 23.67220000
H 24.38680000 20.07300000 24.38920000
O 20.63750000 6.97942000 10.72070000
H 19.11000000 6.46500000 11.86090000
H 19.66790000 7.17737000 9.02893000
O 4.06436000 19.89230000 20.21800000
H 5.24997000 18.62710000 19.69460000
H 3.90735000 21.04820000 18.89840000
O 9.51899000 10.61130000 6.68488000
H 10.70680000 9.66601000 6.56799000
H 9.39622000 10.80290000 8.57945000
O 21.05880000 3.18192000 0.96054800
H 19.90790000 2.14286000 2.10774000
H 22.37800000 3.42158000 1.76150000
O 15.92860000 1.36925000 21.30060000
H 17.25610000 0.05136000 21.14140000
H 14.36720000 1.56070000 20.69920000
O 22.63460000 2.29377000 9.06595000
H 22.17550000 3.23826000 10.36720000
H 21.27430000 1.70206000 8.45241000
O 11.36160000 9.87166000 24.28010000
H 13.49840000 9.42923000 1.19132000
H 11.98790000 8.93713000 22.67380000
O 4.98136000 9.55975000 19.97220000
H 4.11396000 8.49111000 21.20430000
H 4.61709000 8.53280000 18.41230000
O 6.86299000 14.69820000 20.36130000
H 7.93019000 14.34170000 19.01270000
H 6.43222000 12.88520000 21.26160000
O 22.89720000 17.04460000 15.36160000
H 21.96930000 18.48420000 15.99450000
H 24.47474400 16.65370000 16.30790000
O 20.24780000 8.11377000 23.06760000
H 21.56540000 7.56262000 22.03670000
H 20.41560000 6.72607000 24.23590000
O 16.51470000 14.29320000 10.65300000
H 15.12380000 14.34190000 9.89559000
H 16.02310000 13.79490000 12.03930000
O 5.76468000 16.43550000 5.63911000
H 7.21260000 15.23200000 1.51172000
H 7.44102000 16.86470000 5.83944000
O 9.31283000 14.98820000 16.16990000
H 8.18513000 16.22420000 15.78090000
H 11.10640000 14.95680000 16.08180000
O 7.38293000 1.60543000 1.92546000
H 5.82435000 1.62074000 1.06713000
H 7.02472000 3.00430000 2.95417000
O 0.15123400 5.24142000 3.59107000
H 1.26336000 4.22540000 4.83641000
H 1.54147000 5.55644000 2.25554000
O 13.67560000 22.56050000 15.90550000
H 13.78260000 22.24670000 17.87170000
H 14.76440000 21.57290000 14.80580000
O 2.35969000 2.40519000 20.10310000
H 1.62058000 2.20142000 21.89180000
H 1.01868000 2.66912000 19.12170000
O 2.76732000 24.18150000 7.71390000
H 4.33299000 24.50726100 6.79871000
H 1.29055000 0.39188200 7.66242000
O 9.93690000 0.19259300 21.53420000
H 8.62531000 1.06351000 20.41900000
H 10.86680000 1.42476000 22.46190000
O 24.15580000 11.22540000 2.01016000
H 24.58510400 10.45530000 3.87047000
H 23.05230000 10.27730000 1.61060000
O 20.06330000 20.62330000 19.07880000
H 21.29010000 20.11310000 20.15960000
H 20.82710000 22.03700000 18.15180000
O 12.83830000 15.03590000 6.26706000
H 12.67260000 13.19670000 5.86367000
H 14.35460000 15.54640000 5.23779000
O 20.73410000 18.77990000 4.74112000
H 22.06620000 18.15550000 3.39363000
H 21.55600000 19.22590000 6.42886000
O 13.33670000 8.07618000 13.68970000
H 14.23450000 7.22749000 12.56200000
H 11.59670000 7.55533000 13.93260000
O 9.00061000 10.29490000 12.17060000
H 7.08428000 9.96414000 12.90620000
H 9.47017000 12.03140000 13.47450000
O 14.42700000 19.63210000 20.28840000
H 14.24350000 20.32460000 21.97280000
H 16.16020000 19.67370000 20.23830000
O 14.43080000 0.05798700 8.54651000
H 15.16180000 23.26920000 9.19622000
H 11.69220000 0.86055900 8.72539000
O 19.96460000 13.17750000 18.40790000
H 20.66530000 14.07900000 17.18240000
H 18.34630000 13.93910000 19.01960000
O 24.17840000 14.20880000 22.09260000
H 24.20387800 13.62490000 23.60910000
H 1.06163000 14.67440000 21.41420000
O 14.95040000 13.37160000 15.50390000
H 14.73730000 11.84190000 16.53060000
H 16.27890000 14.77640000 16.00450000
O 5.83947000 7.78795000 1.43217000
H 7.49868000 6.97358000 1.23666000
H 6.34072000 9.35886000 2.35372000
O 19.46220000 6.34260000 16.04840000
H 19.76230000 7.85969000 15.19320000
H 17.62170000 7.22632000 17.52730000
O 15.00760000 7.61037000 20.27930000
H 15.70720000 8.24523000 21.86060000
H 14.49480000 6.17537000 20.55140000
O 18.78410000 10.76970000 6.30335000
H 18.76140000 11.04670000 4.59138000
H 18.92450000 12.41550000 7.19723000
O 8.77973000 4.03134000 10.33140000
H 9.08331000 3.94613000 12.10940000
H 9.69059000 2.61778000 9.52440000
O 15.14530000 14.54890000 22.61720000
H 14.19970000 14.74320000 20.86280000
H 14.50220000 13.00260000 23.40320000
O 18.40830000 24.61640000 5.74740000
H 15.74450000 0.52694000 6.00202000
H 18.80940000 22.67070000 5.65933000
O 11.15450000 3.28894000 15.40160000
H 12.64380000 4.06082000 15.99350000
H 11.60180000 1.57545000 14.94130000
O 1.34707000 21.52140000 12.18590000
H 2.36099000 21.72410000 10.64220000
H 2.02084000 20.04200000 13.00440000
O 14.28330000 5.73471000 9.36119000
H 12.60490000 5.25049000 9.53032000
H 14.71130000 3.76853000 10.10680000
O 4.25748000 5.57152000 7.27332000
H 5.88808000 4.86302000 7.79324000
H 4.58978000 8.87463000 6.19413000
O 21.50350000 23.10930000 12.66780000
H 21.64090000 22.68760000 10.96800000
H 23.24120000 22.98520000 12.92680000
O 13.83500000 8.91265000 4.46279000
H 14.40070000 6.96762000 4.42944000
H 15.25530000 10.21530000 5.21236000
O 9.50981000 20.20780000 14.25870000
H 8.26237000 21.13270000 15.29170000
H 11.10480000 20.46760000 15.02430000
O 17.24420000 15.64270000 2.51187000
H 19.09210000 15.57780000 2.22129000
H 16.63820000 16.70980000 1.03243000
O 0.24952900 11.61170000 9.93728000
H 23.85610000 12.18000000 8.72082000
H 0.19214000 9.93393000 9.25686000
O 5.17417000 24.12980000 16.43740000
H 4.62681000 22.66000000 15.49150000
H 4.40041000 24.21036200 18.04650000
O 14.03370000 3.46899000 1.06427000
H 14.53210000 1.87860000 0.47034000
H 13.45180000 3.52186000 2.63413000
O 3.99903000 22.46490000 24.29470000
H 3.63894000 21.02410000 23.33810000
H 3.85029000 22.03900000 1.19223000
O 3.99740000 7.22240000 12.48170000
H 4.46170000 5.31717000 12.57940000
H 4.49322000 7.65975000 10.75240000
    
    &END COORD
  &END SUBSYS
  &DFT
    BASIS_SET_FILE_NAME  BASIS_SET
    POTENTIAL_FILE_NAME  GTH_POTENTIALS
    &QS
      EPS_DEFAULT 1.0E-10
    &END QS
    &MGRID
      NGRIDS 4
      CUTOFF 135
      REL_CUTOFF 115
    &END MGRID
    &XC
      &XC_FUNCTIONAL PADE
      &END XC_FUNCTIONAL
    &END XC
    &SCF
      SCF_GUESS ATOMIC
      EPS_SCF 1.0E-7
      MAX_SCF 300
      &DIAGONALIZATION  ON
        ALGORITHM STANDARD
      &END DIAGONALIZATION
      &MIXING  T
        METHOD BROYDEN_MIXING
        ALPHA 0.4
        NBROYDEN 8
      &END MIXING
    &END SCF
  &END DFT
  &PRINT
    &FORCES ON
    &END FORCES
  &END PRINT
&END FORCE_EVAL
