&GLOBAL
  PROJECT H2O_bulk
  RUN_TYPE ENERGY_FORCE
  PRINT_LEVEL LOW
&END GLOBAL
&FORCE_EVAL
  METHOD Quickstep
  &SUBSYS
    &KIND H
      ELEMENT   H
      BASIS_SET DZVP-GTH-PBE
      POTENTIAL GTH-PBE-q1
    &END KIND
    &KIND O
      ELEMENT   O
      BASIS_SET DZVP-GTH-PBE
      POTENTIAL GTH-PBE-q6
    &END KIND
    &CELL
      A     24.50705 0.0 0.0
      B     0.0 24.50705 0.0
      C     0.0 0.0 24.50705
    &END CELL
    &COORD

O 19.37170000 2.88902000 16.40530000
H 19.83870000 3.34917000 18.33090000
H 18.44700000 1.31041000 16.43520000
O 23.54985000 20.98965000 10.12320000
H 0.04910000 19.59775000 10.67860000
H 23.37415000 20.83035000 8.30664000
O 13.57170000 23.40583000 19.49040000
H 12.64940000 21.83832000 18.98390000
H 14.92670000 23.26628000 17.91800000
O 20.82490000 14.90374000 24.28433100
H 20.51777000 16.47866000 23.68928700
H 20.39371000 14.90500000 1.59279000
O 4.43923000 8.92805000 20.69990000
H 5.83245000 10.02095000 20.30400000
H 5.68752000 7.67905000 21.59400000
O 23.31437000 13.59530000 8.69138000
H 23.96798600 11.69520000 8.05838000
H 0.05688600 14.27870000 9.64901000
O 13.31915000 23.57090000 11.12120000
H 13.90085000 23.69080000 9.48422000
H 12.69985000 21.94740000 11.57090000
O 24.08268000 24.45030000 13.67060000
H 24.12872800 23.96240000 11.95570000
H 22.61659000 1.13985000 13.66330000
O 8.18585000 12.14150000 19.04080000
H 9.90315000 11.23520000 18.24060000
H 9.18865000 12.84920000 20.48900000
O 9.16727000 21.64670000 2.07945000
H 10.37510000 22.83760000 1.40395000
H 8.48474000 23.04880000 2.95565000
O 11.75745000 3.79200000 4.94872000
H 9.98135000 3.15484000 4.91310000
H 12.43975000 3.66639000 3.21671000
O 13.90885000 10.14265000 1.90120000
H 14.63313000 11.10465000 0.32040000
H 12.13265000 10.51015000 1.86630000
O 15.89850000 19.48400000 3.95645000
H 17.30250000 18.27840000 4.51045000
H 14.44050000 18.34110000 4.00855000
O 1.71045000 16.93500000 11.72695000
H 3.53085000 17.21840000 11.40065000
H 1.82255000 16.82690000 13.47915000
O 21.57706000 3.73218000 21.56070000
H 22.97648000 4.96326000 20.93986000
H 22.56948000 2.32564000 22.23289000
O 21.07350000 21.95980000 4.81015000
H 19.60540000 21.82900000 5.82675000
H 22.01330000 23.42350000 5.71545000
O 17.45810000 11.26760000 22.26980000
H 16.69540000 11.45730000 20.69750000
H 18.32800000 12.67990000 22.95550000
O 8.95455000 11.53580000 3.61655000
H 8.75655000 11.51660000 5.28695000
H 7.50025000 10.20100000 3.24515000
O 16.69330000 23.33120000 15.20385000
H 15.12490000 23.81380000 14.00285000
H 17.10620000 21.64930000 14.87635000
O 7.48690000 1.61855000 4.84412000
H 6.17700000 1.30375000 6.34385000
H 6.18480000 2.29565000 3.31243000
O 7.15315000 16.95200000 10.48855000
H 7.89445000 15.23000000 10.05765000
H 8.41655000 17.75690000 11.46255000
O 13.42725000 7.32982000 13.04690000
H 12.41065000 5.85827000 12.14380000
H 15.69501000 6.77586000 12.88790000
O 6.52572000 4.16737000 21.24468000
H 8.25751000 3.47277000 21.54809000
H 6.01007000 3.50420000 19.48259000
O 18.83595000 6.90641000 0.13345000
H 18.73125000 8.33053000 23.49030000
H 19.67065000 5.71525000 23.57620000
O 1.42251000 9.05020000 7.00415000
H 24.15740800 8.45920000 6.65385000
H 2.19440000 8.55020000 5.36855000
O 8.76827000 12.30435000 8.81985000
H 7.51457000 11.23045000 9.83605000
H 10.44700000 12.20805000 9.23738000
O 9.85355000 19.54760000 18.35260000
H 8.00735000 19.98120000 18.34890000
H 9.55025000 18.40090000 19.52680000
O 4.41445000 8.92555000 2.45180000
H 3.95805000 10.10715000 0.99560000
H 4.20505000 7.22015000 1.66350000
O 12.53040000 8.47045000 18.03860000
H 12.84360000 7.83805000 16.23180000
H 12.07990000 6.91835000 18.75330000
O 0.77884700 24.18620000 24.21180000
H 23.62626600 23.68320000 24.22830000
H 2.12104000 22.79540000 23.92990000
O 4.75931000 15.52850000 23.60381600
H 5.89455000 14.82740000 22.33051000
H 3.13653000 14.35670000 23.61984800
O 2.85248000 2.43058000 16.79110000
H 1.35385000 2.27306000 15.60930000
H 2.46093000 4.05828000 17.63880000
O 11.59610000 3.76740000 20.66420000
H 12.70960000 2.52830000 19.59580000
H 12.69450000 3.86690000 22.15510000
O 3.86126000 0.38930000 8.17195000
H 3.86743000 0.97480000 9.94385000
H 3.75901000 23.16825000 8.15135000
O 16.43360000 11.22235000 6.42989000
H 15.68050000 10.30365000 4.92103000
H 17.99390000 10.24885000 6.49388000
O 19.75410000 11.34125000 11.95170000
H 18.09230000 11.96755000 11.96410000
H 20.91210000 12.50805000 11.08360000
O 10.76615000 3.60935000 10.33430000
H 11.14765000 3.64125000 8.46567000
H 11.99225000 2.15795000 10.83450000
O 0.25640000 6.58162000 18.78400000
H 23.93145000 7.71032000 17.60450000
H 2.25180000 7.32191000 19.26200000
O 4.90255000 9.27615000 11.19295000
H 5.36445000 7.61195000 11.58805000
H 3.55355000 9.00725000 10.24155000
O 19.49160000 15.57060000 5.53745000
H 21.29180000 15.18840000 6.30905000
H 18.45970000 14.69290000 6.20805000
O 4.74135000 21.36482000 18.68345000
H 4.28655000 21.02289000 20.37575000
H 3.73965000 22.54883000 17.56405000
O 19.63235000 3.62034000 8.36995000
H 18.99585000 4.68141000 9.81675000
H 18.40645000 3.01623000 7.05225000
O 16.29496000 15.78890000 13.74585000
H 17.65330000 17.27380000 13.33885000
H 15.76743000 14.66460000 12.35645000
O 5.66410000 4.11835000 12.13235000
H 7.18550000 3.59555000 12.03945000
H 5.01830000 3.17145000 13.57695000
O 15.03080000 24.35893800 6.49342000
H 13.61100000 0.97504300 6.05497000
H 15.01940000 22.81635000 5.77980000
O 10.99790000 15.20780000 21.64085000
H 12.58440000 14.75883000 20.77985000
H 11.12660000 15.80781000 23.70045000
O 3.88612000 12.29175000 15.39190000
H 5.27076000 12.34225000 16.51188000
H 4.34875000 11.13115000 14.08605000
O 19.98900000 18.99940000 13.76830000
H 21.37280000 19.80570000 12.49510000
H 21.29130000 17.76480000 14.51030000
O 11.92090000 18.77620000 13.42065000
H 13.02790000 17.43260000 13.69075000
H 11.52430000 19.02670000 14.88812000
O 24.02460000 1.75480000 5.51935000
H 23.12700000 2.72220000 6.87215000
H 1.21145000 1.88630000 5.87795000
O 20.37458000 7.86766000 5.19815000
H 20.61458000 6.39660000 6.27756000
H 20.37628000 7.62105000 3.48748000
O 13.66080000 22.76910000 24.27110000
H 14.52290000 21.06080000 0.43445000
H 13.90690000 22.61420000 22.54510000
O 20.31233000 20.29510000 24.43445000
H 18.34424000 20.15140000 0.15220000
H 20.74835000 20.79230000 1.72360000
O 11.79365000 16.72445000 2.03610000
H 10.24755000 17.86785000 2.52506000
H 11.72415000 14.83885000 2.58342000
O 1.71975000 17.23080000 16.77960000
H 2.96345000 16.11530000 16.56280000
H 2.31405000 18.88330000 17.53890000
O 4.33985000 20.44825000 24.22363100
H 4.79845000 18.75745000 23.98362700
H 5.75095000 21.16335000 0.43333700
O 4.23316000 19.72450000 6.60075000
H 5.54201000 18.54030000 7.52225000
H 4.17528000 19.68460000 4.68745000
O 4.27519000 3.65255000 1.20533000
H 4.77891000 4.04075000 23.54960900
H 2.64055000 2.62445000 1.26656000
O 13.80255000 12.08535000 10.39640000
H 13.80795000 10.41645000 10.88410000
H 15.00313000 12.24565000 8.78607000
O 18.89069000 5.88085000 12.61590000
H 19.91173000 7.29363000 13.28150000
H 18.41970000 4.81743000 14.11840000
O 1.08205000 12.26555000 23.42768000
H 1.42275000 10.79215000 22.16559000
H 23.89590000 12.38815000 23.06753000
O 23.44090000 10.75620000 16.01865000
H 22.14880000 10.82180000 14.69325000
H 0.25885000 12.03350000 16.00725000
O 14.61020000 3.80875000 0.00800000
H 16.30920000 4.64515000 0.20520000
H 14.84250000 2.20365000 0.65660000
O 14.83813000 13.21840000 18.13810000
H 15.93170000 13.95650000 17.03540000
H 14.19555000 11.68760000 17.81800000
    
    &END COORD
  &END SUBSYS
  &DFT
    BASIS_SET_FILE_NAME  BASIS_SET
    POTENTIAL_FILE_NAME  GTH_POTENTIALS
    &QS
      EPS_DEFAULT 1.0E-10
    &END QS
    &MGRID
      NGRIDS 4
      CUTOFF 135
      REL_CUTOFF 115
    &END MGRID
    &XC
      &XC_FUNCTIONAL PADE
      &END XC_FUNCTIONAL
    &END XC
    &SCF
      SCF_GUESS ATOMIC
      EPS_SCF 1.0E-7
      MAX_SCF 300
      &DIAGONALIZATION  ON
        ALGORITHM STANDARD
      &END DIAGONALIZATION
      &MIXING  T
        METHOD BROYDEN_MIXING
        ALPHA 0.4
        NBROYDEN 8
      &END MIXING
    &END SCF
  &END DFT
  &PRINT
    &FORCES ON
    &END FORCES
  &END PRINT
&END FORCE_EVAL
