&GLOBAL
  PROJECT H2O_bulk
  RUN_TYPE ENERGY_FORCE
  PRINT_LEVEL LOW
&END GLOBAL
&FORCE_EVAL
  METHOD Quickstep
  &SUBSYS
    &KIND H
      ELEMENT   H
      BASIS_SET DZVP-GTH-PBE
      POTENTIAL GTH-PBE-q1
    &END KIND
    &KIND O
      ELEMENT   O
      BASIS_SET DZVP-GTH-PBE
      POTENTIAL GTH-PBE-q6
    &END KIND
    &CELL
      A     24.34312 0.0 0.0
      B     0.0 24.34312 0.0
      C     0.0 0.0 24.34312
    &END CELL
    &COORD

O 19.90060000 2.55819000 16.71044000
H 20.52450000 2.75829000 18.39704000
H 19.09670000 1.01084000 17.04884000
O 20.09668000 17.70938000 10.70510000
H 22.01158000 18.15508000 11.20080000
H 19.20258000 19.15218000 10.29110000
O 13.56740000 21.83052000 21.08710000
H 12.14750000 20.86694000 20.51090000
H 15.06670000 21.34058000 19.98220000
O 18.33526000 17.29330000 22.15378000
H 17.79518000 18.31886000 21.07537000
H 20.11729000 17.78235000 22.64001000
O 5.32762000 7.22818000 21.67250000
H 6.05342000 8.49408000 20.86360000
H 6.25435000 5.29808000 21.37400000
O 2.56520000 17.08970000 7.92720000
H 2.95909000 15.45290000 7.61493000
H 3.64242000 18.55710000 6.95106000
O 14.48268000 22.81340000 13.03640000
H 16.05888000 22.91560000 11.97880000
H 13.75268000 21.08030000 13.35750000
O 23.07937000 0.12152000 12.14810000
H 22.74318000 22.82414000 12.48670000
H 21.81107000 1.56872000 12.74940000
O 7.96618000 10.88714000 18.86000000
H 9.67908000 9.64874000 18.35910000
H 9.15458000 11.55194000 20.27260000
O 7.42857000 23.83174000 1.30222000
H 9.14997000 23.25654000 1.32172000
H 7.43209000 1.31012000 1.19732000
O 12.93012000 2.86491000 5.37723000
H 11.56292000 3.75779000 4.91201000
H 12.66712000 1.11885000 4.79636000
O 12.95032000 10.37948000 0.61936000
H 13.37262000 11.19778000 23.65748000
H 11.17982000 10.95948000 1.05116000
O 12.67840000 18.01684000 4.64582000
H 14.29590000 17.18354000 5.01392000
H 11.43750000 17.67624000 5.84582000
O 0.73238000 18.70590000 12.38908000
H 1.49208000 17.88670000 10.66018000
H 1.11788000 17.36190000 13.71148000
O 21.51245000 4.39874000 21.46630000
H 23.50045400 5.11971000 21.11618000
H 21.52671000 3.68442000 23.37371200
O 22.47334000 19.55580000 5.57718000
H 23.31254000 18.43890000 6.74008000
H 22.59324000 21.23410000 5.60568000
O 15.65354000 12.43280000 20.92080000
H 15.40994000 12.46420000 18.86660000
H 16.25374000 13.98290000 21.50770000
O 7.85892000 10.40906000 2.83752000
H 7.77102000 10.37386000 4.58742000
H 6.08892000 11.08896000 2.35032000
O 17.92546000 21.98740000 17.57958000
H 17.03676000 22.50200000 15.93088000
H 19.11396000 20.47570000 16.97318000
O 7.39506000 4.39782000 3.34859000
H 5.99476000 3.98002000 4.44029000
H 7.40866000 6.20382000 2.71768000
O 9.51158000 17.92190000 9.23732000
H 8.82558000 16.33210000 9.09022000
H 10.94248000 17.99970000 10.72622000
O 13.84142000 6.35898000 12.53546000
H 12.95572000 4.86415000 11.68316000
H 15.64243000 5.69915000 12.49326000
O 7.89592000 2.77069000 21.18857000
H 9.64162000 2.95574000 20.58137000
H 6.85385000 1.58204000 19.88653000
O 17.02758000 6.53477000 22.10220000
H 16.67798000 8.47256000 21.70580000
H 18.66508000 6.07630000 21.67010000
O 2.74967000 11.94856000 6.26028000
H 1.40827000 10.78556000 6.80918000
H 2.98134000 12.03026000 4.70428000
O 9.58181000 11.81028000 7.86824000
H 8.35303000 10.82788000 8.80882000
H 11.26800000 11.14438000 8.50135000
O 9.69582000 19.28950000 18.11110000
H 8.17172000 20.24520000 17.97490000
H 9.69632000 17.84140000 19.41530000
O 2.82698000 10.29428000 0.98346000
H 2.03028000 11.20338000 23.95788000
H 3.51918000 8.95098000 0.20346000
O 11.97720000 7.07608000 17.32350000
H 12.37110000 6.70948000 15.65530000
H 12.12690000 5.58738000 18.51110000
O 21.28926000 3.57672000 1.97488000
H 19.68035000 3.90622000 2.55238000
H 21.88880000 1.94312000 2.63158000
O 4.30183000 16.75930000 20.42442000
H 5.58006000 15.46770000 20.54976000
H 3.52675000 16.28780000 21.87705000
O 2.35630000 1.60957000 16.13570000
H 1.15851000 0.63620100 15.07780000
H 1.64024000 3.17821000 16.45510000
O 12.95324000 2.58606000 20.76844000
H 14.18484000 1.04536000 20.48284000
H 14.02564000 3.60816000 21.53594000
O 4.13822000 1.44126000 6.81712000
H 4.63687000 1.63266000 8.75572000
H 4.56086000 23.89888000 6.69352000
O 17.32054000 11.61488000 4.52120000
H 16.40794000 11.26258000 2.80919000
H 18.87204000 10.72378000 4.32976000
O 20.81780000 9.98358000 12.29430000
H 19.18500000 10.80808000 12.58980000
H 21.64820000 9.80938000 10.75830000
O 11.02522000 2.22432000 10.88870000
H 11.51102000 1.71372000 9.13879000
H 12.38372000 1.58412000 11.84470000
O 1.29064000 6.26976000 19.01360000
H 0.59054000 7.80124000 18.16180000
H 2.71634000 6.41738000 20.09870000
O 5.44342000 8.77952000 10.60598000
H 5.26972000 7.02382000 10.82078000
H 3.74042000 9.37612000 9.52878000
O 17.24390000 16.34410000 5.93378000
H 18.88000000 17.10400000 5.90198000
H 17.33550000 14.59090000 5.67698000
O 5.47682000 22.87571000 19.27368000
H 4.64292000 22.29072000 20.77868000
H 3.59352000 23.15198000 18.43598000
O 18.69718000 2.67264000 7.92368000
H 18.57898000 3.66589000 9.72258000
H 17.39638000 3.45686000 6.92618000
O 16.87751000 14.20814000 12.25992000
H 17.87558000 15.32374000 11.36002000
H 16.40064000 13.24004000 10.77942000
O 5.35766000 3.56512000 12.03512000
H 6.94706000 3.07062000 12.11042000
H 4.83176000 3.16422000 13.69852000
O 17.27120000 22.06767000 8.62379000
H 18.13880000 23.51763300 8.26007000
H 16.05430000 21.31085000 7.40524000
O 10.41654000 15.15550000 21.14878000
H 12.17224000 14.65481000 20.66528000
H 10.74324000 15.07701000 22.85238000
O 4.93871000 11.73052000 14.50943000
H 6.12970000 11.46972000 16.08708000
H 5.37938000 11.11912000 12.69702000
O 19.58880000 17.46500000 16.05380000
H 19.88440000 17.53310000 14.20430000
H 21.16780000 17.51750000 17.14400000
O 12.24990000 18.38430000 13.95462000
H 12.80530000 16.57740000 14.23692000
H 11.42070000 18.79620000 15.46501000
O 23.16680000 0.43336000 6.09728000
H 22.43720000 0.96386000 8.16038000
H 0.62528000 0.77366000 6.51798000
O 23.44864700 8.31168000 7.91169000
H 23.84915800 6.60929000 8.01477000
H 22.73936000 8.63354000 6.11350000
O 12.28950000 22.67594000 2.00698000
H 12.44060000 21.14424000 2.93478000
H 13.06820000 22.33924000 24.30540000
O 23.54653800 18.54840000 0.35226000
H 0.93046800 19.17130000 24.33308000
H 23.08750000 19.17890000 2.05896000
O 9.45748000 15.77028000 1.89955000
H 10.93518000 16.89278000 2.82901000
H 9.38368000 14.49488000 2.93475000
O 0.27488000 16.19900000 16.93534000
H 0.23298000 14.43790000 16.66714000
H 1.56328000 16.55940000 18.19774000
O 4.27202000 20.45448000 24.13205700
H 5.68722000 19.31608000 24.15029300
H 5.15532000 21.95838000 0.37581100
O 6.01234000 20.86674000 6.53688000
H 7.26747000 20.62884000 7.51568000
H 6.88997000 20.96654000 4.92018000
O 22.16771000 8.71368000 2.72617000
H 23.84826400 8.93468000 2.20692000
H 21.94797000 6.81718000 2.94963000
O 14.80354000 10.09442000 8.70434000
H 14.18072000 8.49962000 9.42244000
H 14.95805000 9.63462000 6.92557000
O 18.66723000 4.92427000 12.55080000
H 19.55953000 6.42643000 12.46910000
H 19.42907000 4.08570000 14.23270000
O 23.99250000 13.63362000 22.98190000
H 23.10480000 13.69492000 21.21478000
H 23.45350000 15.11209000 24.11325700
O 0.22208000 10.71140000 15.75228000
H 23.22980000 10.51250000 14.09448000
H 2.06468000 11.03040000 14.90008000
O 16.65650000 4.99088000 2.80746000
H 15.03490000 4.77518000 3.38246000
H 16.38500000 5.57218000 1.00816000
O 14.19302000 12.10150000 15.90040000
H 15.66168000 12.56500000 14.90440000
H 14.44793000 10.23230000 15.89150000
    
    &END COORD
  &END SUBSYS
  &DFT
    BASIS_SET_FILE_NAME  BASIS_SET
    POTENTIAL_FILE_NAME  GTH_POTENTIALS
    &QS
      EPS_DEFAULT 1.0E-10
    &END QS
    &MGRID
      NGRIDS 4
      CUTOFF 135
      REL_CUTOFF 115
    &END MGRID
    &XC
      &XC_FUNCTIONAL PADE
      &END XC_FUNCTIONAL
    &END XC
    &SCF
      SCF_GUESS ATOMIC
      EPS_SCF 1.0E-7
      MAX_SCF 300
      &DIAGONALIZATION  ON
        ALGORITHM STANDARD
      &END DIAGONALIZATION
      &MIXING  T
        METHOD BROYDEN_MIXING
        ALPHA 0.4
        NBROYDEN 8
      &END MIXING
    &END SCF
  &END DFT
  &PRINT
    &FORCES ON
    &END FORCES
  &END PRINT
&END FORCE_EVAL
