&GLOBAL
  PROJECT H2O_bulk
  RUN_TYPE ENERGY_FORCE
  PRINT_LEVEL LOW
&END GLOBAL
&FORCE_EVAL
  METHOD Quickstep
  &SUBSYS
    &KIND H
      ELEMENT   H
      BASIS_SET DZVP-GTH-PBE
      POTENTIAL GTH-PBE-q1
    &END KIND
    &KIND O
      ELEMENT   O
      BASIS_SET DZVP-GTH-PBE
      POTENTIAL GTH-PBE-q6
    &END KIND
    &CELL
      A     24.8598 0.0 0.0
      B     0.0 24.8598 0.0
      C     0.0 0.0 24.8598
    &END CELL
    &COORD

O 11.96160000 20.10010000 1.11105000
H 11.97670000 19.68390000 24.37378000
H 12.61700000 18.46130000 1.48266000
O 23.41080000 4.03523000 8.21383000
H 0.36580000 4.61330000 8.05688000
H 23.60480000 2.27063000 7.45754000
O 19.07110000 24.84338300 21.49780000
H 17.25960000 0.44312200 22.23920000
H 19.80260000 1.56373000 20.60540000
O 14.05370000 18.24870000 9.69813000
H 14.44400000 16.96660000 10.31460000
H 13.75690000 19.10640000 11.10300000
O 19.13330000 12.89300000 15.14670000
H 19.33920000 14.78600000 14.86200000
H 17.39030000 12.78250000 16.06380000
O 3.78095000 15.78710000 9.61841000
H 3.15945000 16.65360000 8.37992000
H 5.22189000 14.90420000 8.69518000
O 15.67380000 22.17490000 16.33010000
H 15.30470000 23.67920000 16.80990000
H 14.36840000 21.86630000 15.64440000
O 0.78023900 12.82560000 21.32260000
H 23.68573000 13.06850000 21.06240000
H 1.38663000 13.06970000 23.07040000
O 15.02260000 24.43270000 3.02713000
H 15.15860000 22.64770000 2.77916000
H 15.67890000 24.49890000 1.66038000
O 11.63660000 14.30600000 15.07710000
H 11.65460000 14.07360000 16.62400000
H 10.14040000 14.80660000 14.93230000
O 2.79386000 13.30700000 0.94832100
H 1.55935000 12.28750000 2.04516000
H 3.01790000 14.82690000 2.13829000
O 10.54760000 20.30420000 19.18570000
H 10.73870000 21.21860000 17.23140000
H 8.63630000 20.67350000 19.17620000
O 20.10760000 2.71716000 16.99390000
H 20.94380000 1.17581000 17.34190000
H 21.15180000 3.91165000 16.52780000
O 7.55542000 12.60340000 7.18854000
H 9.43213000 12.62240000 7.53268000
H 6.77381000 11.28560000 6.43104000
O 10.57750000 21.50750000 13.73680000
H 10.42500000 23.11480000 12.85700000
H 9.40819000 20.22970000 13.47720000
O 20.31510000 15.74950000 2.79228000
H 21.69340000 16.72380000 3.79656000
H 19.94740000 16.54970000 1.51748000
O 8.06094000 21.12240000 3.45380000
H 8.22968000 22.42220000 4.22695000
H 9.43190000 20.81410000 2.46008000
O 15.99280000 11.22450000 5.42433000
H 14.89310000 10.13430000 5.81757000
H 16.07180000 11.46820000 3.71573000
O 7.13527000 2.87292000 22.00130000
H 7.12159000 1.35910000 22.66700000
H 5.76097000 4.03923000 22.12970000
O 16.57210000 7.73329000 18.13720000
H 16.49640000 7.99231000 20.11830000
H 16.72220000 5.57625000 17.84910000
O 9.81997000 4.36304000 15.06580000
H 9.09833000 6.11866000 15.47120000
H 9.42136000 3.18800000 16.60660000
O 17.53720000 17.71540000 16.51020000
H 16.53220000 16.69070000 17.86860000
H 17.84370000 18.86160000 17.42210000
O 4.35036000 7.75156000 15.06540000
H 5.65787000 8.76225000 15.37610000
H 3.16490000 8.36787000 15.97390000
O 17.01530000 3.56400000 0.21984300
H 18.81160000 4.31817000 0.57872100
H 15.85440000 4.33629000 1.02848000
O 17.63950000 21.64500000 7.34753000
H 16.34310000 22.26270000 6.43119000
H 16.70780000 19.42030000 8.19991000
O 13.75400000 16.52770000 4.80605000
H 12.08360000 16.67410000 5.56729000
H 14.67800000 15.55960000 6.08621000
O 9.07073000 15.25770000 22.92530000
H 8.07085000 15.51010000 21.19500000
H 9.51845000 16.86300000 23.80590000
O 3.52549000 8.09881000 5.99171000
H 3.80752000 6.88323000 7.23106000
H 2.85452000 9.76763000 6.66038000
O 2.62408000 20.95530000 6.44380000
H 2.91220000 19.97180000 4.88248000
H 1.04380000 21.13430000 6.43402000
O 12.87060000 5.25515000 11.29350000
H 14.69490000 5.48175000 11.13200000
H 12.87800000 4.25397000 12.52740000
O 4.91723000 5.39435000 1.46908000
H 4.13988000 6.66535000 2.08753000
H 3.67594000 4.13669000 1.24862000
O 4.54843000 16.32860000 18.66370000
H 3.17187000 17.42310000 18.49780000
H 3.48683000 14.83710000 19.44280000
O 6.45141000 16.20270000 2.56275000
H 6.58975000 18.01110000 2.97223000
H 7.48244000 14.77720000 3.34558000
O 8.03007000 10.38520000 0.34176900
H 7.34800000 10.61240000 1.88896000
H 7.09188000 11.38720000 23.81284000
O 3.93206000 2.94364000 17.70110000
H 4.37514000 4.22052000 16.38500000
H 5.20244000 2.44199000 18.85820000
O 3.33994000 5.32495000 10.14610000
H 3.34819000 6.58692000 11.27850000
H 4.71557000 3.83940000 9.88997000
O 20.34880000 5.17066000 12.22900000
H 19.92920000 6.68245000 13.44060000
H 21.54230000 5.17260000 10.98640000
O 12.17620000 11.71730000 10.24920000
H 11.85700000 12.23450000 12.06430000
H 12.06190000 10.21890000 10.48220000
O 6.58081000 0.20050000 12.48750000
H 6.14475000 1.07360000 14.13530000
H 5.93949000 23.37850000 13.13280000
O 16.47830000 1.17980000 11.47040000
H 17.53420000 2.67020000 12.15910000
H 17.24850000 0.49618200 10.18740000
O 7.45257000 17.21640000 13.97760000
H 7.54733000 16.82430000 15.55410000
H 6.21394000 16.98080000 12.71860000
O 11.62360000 4.68095000 6.16863000
H 11.47970000 4.30309000 7.98336000
H 9.89461000 4.30785000 6.04520000
O 12.91040000 7.75297000 1.78980000
H 12.64290000 6.96615000 3.19949000
H 11.25240000 8.71416000 1.48991000
O 18.96310000 14.16670000 10.02290000
H 18.95330000 11.86360000 13.93640000
H 18.63820000 12.53670000 9.04076000
O 19.43960000 11.42610000 22.22140000
H 19.23770000 10.07560000 21.76400000
H 20.40880000 11.48540000 23.88860000
O 21.96700000 21.31650000 24.23000000
H 21.54930000 20.03130000 22.85740000
H 22.17700000 23.13420000 23.82250000
O 5.58754000 22.32490000 22.29840000
H 5.24714000 22.56820000 23.71510000
H 4.51694000 21.36410000 21.51710000
O 7.65920000 0.28349100 7.15792000
H 6.24796000 24.67024200 6.91076000
H 7.42982000 0.15680700 9.06609000
O 14.20230000 14.68840000 20.26010000
H 12.98560000 14.91580000 21.42360000
H 15.60670000 14.50190000 21.35640000
O 24.04720000 12.41230000 5.73207000
H 22.24130000 12.48320000 5.14549000
H 23.81390000 12.81160000 7.59109000
O 24.36230000 3.59414000 22.77100000
H 24.68710000 4.29916000 21.27370000
H 23.65740000 4.96374000 23.83480000
O 0.95764800 21.50500000 11.92400000
H 2.65872000 21.59110000 10.81240000
H 24.57336600 20.60040000 11.09180000
O 19.02940000 16.76900000 22.73860000
H 18.81030000 15.31620000 22.11990000
H 17.29090000 17.36470000 22.34950000
O 24.70940000 0.67493100 2.27094000
H 22.89170000 0.82061400 1.53205000
H 0.25500000 2.11879000 1.29028000
O 24.71030000 11.14950000 15.75420000
H 22.95780000 11.48520000 15.80680000
H 0.38450000 12.57920000 15.93040000
O 1.52870000 11.44030000 10.63650000
H 0.22554500 10.54120000 12.19340000
H 2.21530000 12.48410000 11.44170000
O 22.18130000 20.99080000 4.69443000
H 21.25010000 22.59020000 5.13500000
H 21.33760000 20.52080000 3.46936000
O 24.73915900 24.68710000 16.60220000
H 0.28553400 23.96010000 14.84880000
H 1.41022000 0.70010000 17.28530000
O 21.70000000 19.08880000 10.25380000
H 21.81520000 17.92090000 9.15690000
H 20.10800000 19.72990000 9.62103000
O 9.24803000 9.54383000 16.56270000
H 9.45502000 11.12400000 18.05930000
H 10.82380000 9.23956000 15.81440000
O 20.51210000 9.84337000 2.31773000
H 21.50760000 8.78967000 2.77087000
H 19.10140000 9.50133000 3.22535000
O 15.69950000 20.15620000 21.18650000
H 16.49710000 21.96120000 20.65210000
H 14.14210000 20.62550000 20.16070000
O 11.81780000 6.85796000 21.05020000
H 11.78180000 7.48400000 22.97430000
H 10.72450000 5.27904000 20.50110000
O 1.25281000 20.10100000 20.06500000
H 0.17983900 20.78300000 21.12390000
H 1.11628000 21.49760000 18.99610000
    
    &END COORD
  &END SUBSYS
  &DFT
    BASIS_SET_FILE_NAME  BASIS_SET
    POTENTIAL_FILE_NAME  GTH_POTENTIALS
    &QS
      EPS_DEFAULT 1.0E-10
    &END QS
    &MGRID
      NGRIDS 4
      CUTOFF 135
      REL_CUTOFF 115
    &END MGRID
    &XC
      &XC_FUNCTIONAL PADE
      &END XC_FUNCTIONAL
    &END XC
    &SCF
      SCF_GUESS ATOMIC
      EPS_SCF 1.0E-7
      MAX_SCF 300
      &DIAGONALIZATION  ON
        ALGORITHM STANDARD
      &END DIAGONALIZATION
      &MIXING  T
        METHOD BROYDEN_MIXING
        ALPHA 0.4
        NBROYDEN 8
      &END MIXING
    &END SCF
  &END DFT
  &PRINT
    &FORCES ON
    &END FORCES
  &END PRINT
&END FORCE_EVAL
