&GLOBAL
  PROJECT H2O_bulk
  RUN_TYPE ENERGY_FORCE
  PRINT_LEVEL LOW
&END GLOBAL
&FORCE_EVAL
  METHOD Quickstep
  &SUBSYS
    &KIND H
      ELEMENT   H
      BASIS_SET DZVP-GTH-PBE
      POTENTIAL GTH-PBE-q1
    &END KIND
    &KIND O
      ELEMENT   O
      BASIS_SET DZVP-GTH-PBE
      POTENTIAL GTH-PBE-q6
    &END KIND
    &CELL
      A     24.48372 0.0 0.0
      B     0.0 24.48372 0.0
      C     0.0 0.0 24.48372
    &END CELL
    &COORD

O 23.43870000 19.71457000 19.92094000
H 22.43720000 19.55788000 18.32194000
H 24.18420000 17.88579000 19.63144000
O 22.06058000 20.38548000 1.14276000
H 22.71748000 22.00718000 1.75115000
H 22.73258000 20.30308000 23.63353500
O 12.07080000 6.27739000 14.17090000
H 13.25830000 5.76403000 15.41200000
H 11.81090000 4.79810000 13.18420000
O 17.47836000 14.27592000 21.04945000
H 18.23156000 13.72792000 19.49851000
H 18.17199000 15.96326000 21.68690000
O 6.05895000 7.08938000 19.67400000
H 7.60036000 8.10438000 20.49250000
H 6.24322000 7.28538000 17.97830000
O 19.14129000 10.15080000 6.28183000
H 19.25842000 8.97931000 7.78736000
H 18.60328000 9.46296000 4.26561000
O 21.09238000 0.11458000 13.21010000
H 23.12518000 24.05800000 13.04060000
H 20.25388000 23.44280000 11.94230000
O 23.72512000 20.15304000 7.70442000
H 23.72939500 18.95714000 6.43969000
H 22.41366000 21.34664000 7.57369000
O 6.61148000 15.05924000 19.67310000
H 4.78418000 15.50334000 19.71460000
H 6.61858000 13.76094000 21.12900000
O 9.60152000 22.07044000 24.21594000
H 11.32010000 21.84424000 23.20944000
H 9.95878000 21.13854000 1.38792000
O 15.83379000 2.22490000 7.80813000
H 14.90046000 2.82126000 6.09154000
H 14.11602000 2.05374000 9.08121000
O 14.15372000 3.80998000 3.35756000
H 12.41592000 3.39078000 3.90156000
H 14.65351000 3.09848000 1.77286000
O 15.86800000 18.37424000 10.66142000
H 16.24950000 17.03214000 9.14692000
H 16.04810000 17.81424000 12.55282000
O 2.89718000 15.51620000 14.00478000
H 1.47818000 16.61060000 13.34698000
H 2.77228000 13.76680000 13.57468000
O 0.21670800 0.88552900 2.15672000
H 24.06647900 2.01002000 3.62796000
H 1.60132000 1.58644000 1.66308000
O 18.84224000 22.36590000 9.18128000
H 17.85644000 23.70210000 8.22348000
H 17.76844000 20.97880000 9.61138000
O 14.17704000 11.77270000 23.88200000
H 13.37804000 11.02770000 22.35930000
H 15.51184000 12.75210000 22.90880000
O 5.44262000 16.33166000 4.22672000
H 5.67552000 15.53916000 6.01782000
H 6.28132000 15.06766000 3.62462000
O 19.91626000 19.88060000 15.48428000
H 20.00116000 21.59690000 14.92998000
H 18.14266000 19.64490000 16.22428000
O 8.38866000 4.00762000 3.63685000
H 7.90876000 4.03602000 5.37750000
H 7.26126000 3.22422000 2.29910000
O 6.83478000 18.78110000 11.78902000
H 8.06428000 17.44220000 11.20952000
H 6.01658000 17.82270000 13.11282000
O 6.86812000 7.90500000 14.43076000
H 7.05372000 9.80636000 14.60126000
H 8.64182000 7.21039000 14.08096000
O 5.29251000 1.81075000 0.63184300
H 4.86935000 2.57491000 23.44663000
H 5.94386000 24.36212900 0.35327500
O 20.49828000 3.95101000 0.04058000
H 19.42018000 5.21605000 0.54138000
H 21.11878000 2.91878000 1.25168000
O 23.92318500 12.30716000 5.81978000
H 22.24931000 11.35256000 5.84478000
H 23.88960900 14.24236000 5.25478000
O 10.46150000 14.88508000 11.02290000
H 9.37452000 13.84808000 9.72515000
H 12.05310000 14.24338000 10.67900000
O 7.76172000 19.97270000 19.53000000
H 7.78242000 18.28460000 19.53240000
H 8.43082000 20.37370000 21.21320000
O 7.73238000 9.28708000 3.69136000
H 8.51778000 7.21668000 3.77266000
H 5.90628000 9.19938000 2.92166000
O 11.58120000 9.23108000 19.90320000
H 10.88990000 10.22378000 18.15000000
H 12.42670000 7.75188000 19.21770000
O 3.24970000 22.40074000 18.08360000
H 2.06926000 21.39954000 18.88980000
H 4.94480000 21.60004000 18.60010000
O 24.39310900 16.85150000 3.81197000
H 1.75818000 16.96590000 3.32502000
H 23.46209000 18.17600000 2.43689000
O 1.62290000 0.24594000 13.50910000
H 2.70054000 23.83345100 12.03460000
H 1.96057000 24.11529400 15.21060000
O 15.52164000 5.43126000 18.28784000
H 17.08784000 5.25866000 17.38494000
H 15.36964000 4.11536000 19.52644000
O 6.07536000 2.18766000 8.90552000
H 4.77215000 3.27346000 9.54722000
H 5.82529000 0.26196000 8.56022000
O 14.16864000 15.91248000 2.49499000
H 13.83994000 14.21398000 1.37128000
H 12.26234000 16.77948000 2.72395000
O 19.61550000 12.43928000 11.75710000
H 20.58580000 13.83598000 11.52530000
H 19.61860000 11.47338000 10.65050000
O 6.88382000 12.75892000 7.62960000
H 7.96472000 11.29112000 7.05144000
H 5.95912000 11.97172000 8.93377000
O 3.27194000 2.69430000 19.94990000
H 3.02124000 1.16627000 18.88430000
H 4.41214000 3.98051000 19.31760000
O 2.09822000 11.19952000 10.50038000
H 2.24332000 9.46612000 10.82698000
H 0.65602000 11.19102000 9.13358000
O 17.16070000 15.51690000 6.74708000
H 18.11780000 14.02890000 6.49518000
H 15.85220000 15.57340000 5.44908000
O 3.57752000 22.16321000 9.24498000
H 4.43412000 20.94310000 9.80598000
H 2.14032000 21.28508000 8.37168000
O 20.05748000 5.87390000 9.37928000
H 18.47628000 5.12810000 8.86728000
H 19.77548000 6.05466000 11.18308000
O 13.90652000 15.04504000 15.81246000
H 14.45622000 14.46364000 17.55470000
H 13.91082000 13.47244000 14.60433000
O 2.96836000 5.21062000 12.00202000
H 4.29316000 6.08172000 12.97152000
H 2.11376000 4.00592000 13.14042000
O 10.82980000 2.13183000 11.29060000
H 10.26130000 0.94673200 12.43840000
H 9.01011000 2.25913000 10.52460000
O 14.40454000 21.79939000 21.21168000
H 14.76074000 21.03156000 19.20798000
H 15.63844000 20.54629000 21.95848000
O 8.81568000 12.06452000 16.21109000
H 8.05093000 12.83902000 17.76850000
H 9.63440000 12.95862000 15.02277000
O 22.66710000 16.72170000 12.14000000
H 21.95790000 17.18980000 13.74350000
H 22.81270000 17.99800000 10.67390000
O 9.89167000 22.26490000 14.62690000
H 9.42109000 21.75930000 16.28101000
H 8.35975000 21.63960000 13.71652000
O 24.12910000 3.36326000 6.51298000
H 1.17418000 4.09846000 6.61978000
H 22.65490000 4.08876000 7.57438000
O 17.21069000 7.81176000 1.90993000
H 16.05807000 8.66883000 0.83646600
H 15.79998000 6.73867000 2.92557000
O 14.41460000 19.74384000 16.07580000
H 13.12090000 20.28524000 14.89530000
H 13.75830000 17.99724000 16.90380000
O 1.23907000 15.24910000 19.53628000
H 1.00056000 13.61730000 20.25638000
H 1.01055000 14.68830000 17.67388000
O 17.60058000 18.41358000 24.13024400
H 19.14108000 18.83898000 0.38068700
H 16.34278000 17.87688000 0.68962800
O 20.04480000 11.42480000 17.20234000
H 20.40930000 9.64958000 17.56344000
H 20.58180000 11.86950000 15.53544000
O 10.28802000 19.08648000 3.84567000
H 8.81932000 18.06878000 4.30849000
H 10.78792000 20.30978000 5.30093000
O 11.50950000 21.00004000 8.43738000
H 12.57670000 19.84754000 9.60778000
H 10.93940000 22.35264000 9.44318000
O 3.03860000 10.48158000 1.56476000
H 1.70002000 10.60768000 3.06437000
H 2.54624000 9.86588000 0.02768900
O 14.59236000 11.36862000 12.47620000
H 14.07482000 9.61702000 13.09550000
H 16.53605000 11.36312000 12.85850000
O 19.45878000 4.44714000 15.19370000
H 20.84585000 3.89602000 16.33110000
H 19.20512000 2.78306000 14.48880000
O 1.62008000 9.91852000 20.92375000
H 24.44970000 9.00192000 20.96674000
H 2.97778000 8.48502000 20.82302000
O 22.67530000 5.58866000 19.96008000
H 21.69940000 4.81961000 21.49808000
H 24.45480000 4.73225000 19.55708000
O 15.89570000 2.05328000 22.68088000
H 17.55860000 2.08638000 22.89248000
H 15.19040000 0.28888000 22.09928000
O 7.21222000 12.17980000 24.04650000
H 8.53902000 11.50060000 0.56218000
H 5.80672000 12.09880000 0.50258000
    
    &END COORD
  &END SUBSYS
  &DFT
    BASIS_SET_FILE_NAME  BASIS_SET
    POTENTIAL_FILE_NAME  GTH_POTENTIALS
    &QS
      EPS_DEFAULT 1.0E-10
    &END QS
    &MGRID
      NGRIDS 4
      CUTOFF 135
      REL_CUTOFF 115
    &END MGRID
    &XC
      &XC_FUNCTIONAL PADE
      &END XC_FUNCTIONAL
    &END XC
    &SCF
      SCF_GUESS ATOMIC
      EPS_SCF 1.0E-7
      MAX_SCF 300
      &DIAGONALIZATION  ON
        ALGORITHM STANDARD
      &END DIAGONALIZATION
      &MIXING  T
        METHOD BROYDEN_MIXING
        ALPHA 0.4
        NBROYDEN 8
      &END MIXING
    &END SCF
  &END DFT
  &PRINT
    &FORCES ON
    &END FORCES
  &END PRINT
&END FORCE_EVAL
