&GLOBAL
  PROJECT H2O_bulk
  RUN_TYPE ENERGY_FORCE
  PRINT_LEVEL LOW
&END GLOBAL
&FORCE_EVAL
  METHOD Quickstep
  &SUBSYS
    &KIND H
      ELEMENT   H
      BASIS_SET DZVP-GTH-PBE
      POTENTIAL GTH-PBE-q1
    &END KIND
    &KIND O
      ELEMENT   O
      BASIS_SET DZVP-GTH-PBE
      POTENTIAL GTH-PBE-q6
    &END KIND
    &CELL
      A     24.36851 0.0 0.0
      B     0.0 24.36851 0.0
      C     0.0 0.0 24.36851
    &END CELL
    &COORD

O 1.30711000 11.08550000 5.45352000
H 2.79669000 12.03410000 5.06854000
H 24.32052000 12.09020000 4.77641000
O 21.62450000 2.63567000 14.61980000
H 21.59900000 1.99059000 12.94020000
H 21.93320000 4.43193000 14.39000000
O 10.00400000 18.38380000 8.78177000
H 9.21842000 19.50440000 9.95898000
H 10.92310000 17.13950000 9.75969000
O 17.38860000 20.96660000 11.20920000
H 17.73510000 19.18370000 10.98010000
H 19.00740000 21.56610000 11.73080000
O 9.85702000 14.36620000 0.61992400
H 9.37870000 14.15110000 23.22090000
H 10.89910000 12.93600000 1.19113000
O 21.86870000 9.06936000 18.05750000
H 22.57870000 7.90644000 19.24990000
H 21.19810000 10.50630000 18.96780000
O 2.73107000 5.19202000 18.12810000
H 2.36055000 3.44001000 18.49960000
H 2.40054000 5.51302000 16.37320000
O 2.37992000 15.36170000 17.25080000
H 2.85672000 14.18530000 15.95020000
H 2.86274000 14.62460000 18.83770000
O 9.98472000 19.43150000 24.29650000
H 8.35088000 19.58310000 23.50100000
H 10.06690000 17.62600000 0.27289400
O 1.09996000 19.85420000 3.36216000
H 2.28250000 19.67560000 4.71469000
H 1.69773000 18.79650000 2.02094000
O 21.89510000 17.68050000 10.77780000
H 24.23820000 21.76440000 11.98950000
H 20.80910000 16.26600000 10.76820000
O 9.90129000 22.06850000 4.20121000
H 10.71680000 21.20570000 5.58833000
H 9.94066000 21.07570000 2.64092000
O 21.52970000 18.55050000 21.39350000
H 22.41160000 19.47260000 22.67610000
H 22.74250000 17.41740000 12.33040000
O 23.61470000 6.01387000 5.59494000
H 0.53393400 7.29417000 5.44129000
H 22.34890000 6.76413000 6.70181000
O 4.93017000 19.49770000 22.73350000
H 4.11746000 17.94870000 22.21410000
H 4.91487000 20.60350000 21.29580000
O 9.78914000 8.47683000 7.08050000
H 11.46100000 7.74864000 6.99297000
H 9.48480000 8.81458000 8.83679000
O 19.20860000 1.98123000 22.84880000
H 18.75400000 0.93142700 24.26380000
H 20.47150000 3.14429000 23.47600000
O 12.38830000 3.44888000 19.15140000
H 13.32470000 2.08443000 19.89080000
H 10.75180000 3.34420000 19.89790000
O 23.22220000 0.65922600 6.45256000
H 23.74510000 2.36584000 6.11171000
H 21.96760000 0.20063600 5.21514000
O 13.66740000 10.74530000 1.59958000
H 16.71940000 9.43037000 2.22735000
H 12.85140000 9.89118000 0.31299000
O 2.49173000 8.75852000 22.54470000
H 3.94556000 8.16957000 23.38760000
H 2.97560000 8.81603000 20.78670000
O 7.66009000 13.40930000 20.17450000
H 8.47506000 13.35330000 18.55030000
H 7.23723000 11.68980000 20.47190000
O 22.62310000 19.48300000 16.07600000
H 21.63340000 20.57940000 17.17790000
H 23.24460000 18.29540000 17.31560000
O 18.34120000 9.76967000 1.13585000
H 19.59240000 8.34811000 0.96650500
H 17.52690000 10.32260000 23.97740000
O 17.03280000 15.57000000 12.68040000
H 15.68400000 14.41700000 13.08550000
H 18.02560000 15.66180000 14.18840000
O 5.85077000 14.71160000 5.45216000
H 5.85359000 15.47090000 3.85726000
H 7.60691000 14.71430000 5.91147000
O 10.06070000 15.07540000 15.26060000
H 8.62398000 16.08180000 14.81400000
H 11.39160000 16.22390000 15.72680000
O 7.97186000 1.69636000 22.52790000
H 6.34185000 1.09252000 23.04990000
H 9.06516000 1.63259000 23.99150000
O 22.04790000 6.46684000 0.64090000
H 22.50070000 5.76941000 2.28344000
H 23.62770000 6.87568000 24.20720000
O 14.61340000 19.02060000 16.32890000
H 15.23930000 20.08100000 17.65880000
H 15.65250000 19.46750000 14.89880000
O 0.66912200 0.41932100 18.96300000
H 0.30522800 0.83872100 20.69590000
H 23.55410000 0.82088800 17.96770000
O 4.97483000 22.33700000 6.94904000
H 6.51198000 22.15300000 6.01054000
H 4.69454000 24.13570000 6.97935000
O 7.31690000 7.70379000 18.97800000
H 5.94241000 6.50372000 18.79660000
H 8.37373000 7.07546000 20.30650000
O 22.10520000 14.10110000 2.78342000
H 21.14780000 13.77970000 1.26306000
H 21.65480000 15.80050000 3.25229000
O 18.59220000 23.67750000 18.08780000
H 18.69520000 24.31134100 19.80470000
H 19.00060000 0.71146500 17.04650000
O 13.00860000 13.19390000 8.86005000
H 12.55220000 12.18120000 7.44966000
H 14.53250000 14.03730000 8.29588000
O 20.80990000 18.91220000 5.30340000
H 22.25080000 19.49490000 4.32750000
H 21.56150000 18.10050000 6.73160000
O 16.62920000 9.62486000 13.01640000
H 15.39370000 10.42470000 12.06240000
H 16.23580000 7.81820000 13.19610000
O 8.96160000 10.12830000 11.81510000
H 9.41969000 9.01777000 13.18980000
H 10.03140000 11.57090000 12.00630000
O 14.04140000 22.48920000 22.41770000
H 12.76420000 21.22390000 22.80550000
H 15.61780000 21.60300000 22.31970000
O 14.58680000 0.23269000 8.15679000
H 15.19820000 23.08470000 8.97434000
H 12.86790000 0.49969800 8.74725000
O 19.68630000 13.87280000 20.84330000
H 20.50390000 15.53700000 21.32770000
H 17.92140000 14.09720000 21.19260000
O 2.52096000 14.47400000 23.52700000
H 0.81367300 14.49230000 24.13620000
H 2.84976000 12.70880000 23.24880000
O 14.87110000 12.93370000 17.34230000
H 16.25700000 11.91390000 16.82260000
H 15.60570000 14.53950000 17.74000000
O 5.72944000 7.45256000 3.55473000
H 7.41981000 6.82842000 3.76621000
H 6.01927000 9.22090000 3.87208000
O 22.15750000 7.67378000 13.09770000
H 23.55980000 8.27161000 12.15870000
H 22.10540000 8.65459000 14.65890000
O 14.53990000 8.68289000 20.99920000
H 13.83670000 7.01724000 20.79950000
H 13.72550000 9.77525000 19.81590000
O 19.56860000 7.74827000 8.44504000
H 18.09310000 8.63203000 7.86707000
H 19.58080000 7.98191000 10.24600000
O 10.19850000 1.54424000 10.65960000
H 10.70760000 2.99433000 11.68730000
H 9.94969000 0.23269000 11.89080000
O 15.71800000 14.90970000 1.00207000
H 14.53910000 13.37970000 1.25348000
H 14.80500000 16.43240000 1.28743000
O 18.22630000 23.83310000 4.13602000
H 16.66300000 0.04659000 4.85177000
H 18.21920000 22.08230000 4.60148000
O 11.37190000 5.36436000 14.03700000
H 13.13180000 5.06602000 14.37400000
H 10.62860000 4.87025000 15.61050000
O 3.07301000 20.17550000 11.47170000
H 4.42100000 20.58850000 10.31180000
H 3.74048000 19.50000000 13.00370000
O 16.51060000 4.39768000 12.85400000
H 16.14650000 3.47456000 11.33900000
H 18.07590000 3.77182000 13.48410000
O 5.14727000 3.89727000 7.99044000
H 6.88323000 3.44254000 8.42832000
H 5.22333000 5.14863000 6.69307000
O 23.83250000 23.29760000 10.98560000
H 23.30020000 23.11190000 9.14936000
H 1.21925000 23.88020000 10.86970000
O 14.80860000 6.17001000 5.51140000
H 13.71460000 5.87840000 4.08948000
H 15.21870000 4.51404000 6.10238000
O 9.70845000 21.32260000 14.29040000
H 8.53355000 21.85320000 15.57070000
H 11.18770000 20.72510000 15.17480000
O 17.87700000 13.06760000 6.09756000
H 19.63210000 12.93020000 5.77186000
H 17.34110000 13.99050000 4.60819000
O 3.65613000 13.99880000 11.38240000
H 3.12822000 15.04560000 10.00380000
H 4.85801000 12.83810000 10.67290000
O 4.82020000 21.48600000 17.44680000
H 4.61726000 19.67610000 17.37190000
H 3.21555000 22.24150000 17.89550000
O 11.94420000 2.21007000 2.26816000
H 12.93990000 0.92233700 1.45538000
H 11.18380000 1.29278000 3.64496000
O 2.57520000 1.47818000 24.19210000
H 2.09434000 24.31490800 0.67570700
H 3.08053000 2.61583000 1.14561000
O 3.29205000 6.99545000 12.05890000
H 3.42920000 5.45847000 11.09160000
H 4.44257000 8.07573000 11.16810000
    
    &END COORD
  &END SUBSYS
  &DFT
    BASIS_SET_FILE_NAME  BASIS_SET
    POTENTIAL_FILE_NAME  GTH_POTENTIALS
    &QS
      EPS_DEFAULT 1.0E-10
    &END QS
    &MGRID
      NGRIDS 4
      CUTOFF 135
      REL_CUTOFF 115
    &END MGRID
    &XC
      &XC_FUNCTIONAL PADE
      &END XC_FUNCTIONAL
    &END XC
    &SCF
      SCF_GUESS ATOMIC
      EPS_SCF 1.0E-7
      MAX_SCF 300
      &DIAGONALIZATION  ON
        ALGORITHM STANDARD
      &END DIAGONALIZATION
      &MIXING  T
        METHOD BROYDEN_MIXING
        ALPHA 0.4
        NBROYDEN 8
      &END MIXING
    &END SCF
  &END DFT
  &PRINT
    &FORCES ON
    &END FORCES
  &END PRINT
&END FORCE_EVAL
