&GLOBAL
  PROJECT H2O_bulk
  RUN_TYPE ENERGY_FORCE
  PRINT_LEVEL LOW
&END GLOBAL
&FORCE_EVAL
  METHOD Quickstep
  &SUBSYS
    &KIND H
      ELEMENT   H
      BASIS_SET DZVP-GTH-PBE
      POTENTIAL GTH-PBE-q1
    &END KIND
    &KIND O
      ELEMENT   O
      BASIS_SET DZVP-GTH-PBE
      POTENTIAL GTH-PBE-q6
    &END KIND
    &CELL
      A     25.75726 0.0 0.0
      B     0.0 25.75726 0.0
      C     0.0 0.0 25.75726
    &END CELL
    &COORD

O 7.07088000 1.59248000 5.10703000
H 6.50273000 0.61972000 3.57090000
H 8.61839000 2.52170000 4.99385000
O 20.22810000 3.98506000 22.06600000
H 19.24220000 4.74951000 23.24000000
H 21.87220000 3.89843000 22.47700000
O 20.86180000 23.75810000 0.35722100
H 20.61220000 21.95000000 0.54228100
H 19.33170000 24.18090000 25.23880000
O 22.07190000 18.88550000 2.03382000
H 22.50540000 17.81690000 3.45670000
H 20.91410000 17.73840000 1.34479000
O 3.64541000 25.45820500 9.33002000
H 3.48318000 0.84301000 10.96780000
H 4.68386000 0.93436000 8.57375000
O 21.50260000 2.49090000 8.39726000
H 21.22070000 3.59467000 9.66082000
H 22.23740000 1.02008000 9.05146000
O 14.09420000 23.61440000 20.78030000
H 14.13020000 23.73800000 22.62880000
H 12.38350000 24.16210000 20.67700000
O 24.29320000 23.51230000 7.55690000
H 23.94890000 23.33960000 5.90943000
H 0.21927900 23.98170000 7.42684000
O 22.03950000 10.02320000 5.64969000
H 21.21820000 8.79673000 6.95636000
H 23.49560000 8.94933000 5.26042000
O 9.86472000 11.88530000 13.21330000
H 8.54387000 13.31480000 13.31040000
H 8.94312000 10.91200000 14.36570000
O 4.03458000 20.92090000 14.31660000
H 3.53015000 19.78810000 12.84630000
H 4.45344000 19.70160000 15.46910000
O 22.72610000 5.89098000 13.59200000
H 21.80740000 5.96486000 15.00030000
H 23.19870000 7.19891000 12.50980000
O 0.08311300 18.12310000 10.09330000
H 24.83760000 17.31590000 11.20360000
H 0.16114000 19.87130000 10.19460000
O 1.44372000 15.39560000 25.55875100
H 0.21190800 15.97900000 24.50550000
H 1.24704000 15.18760000 1.57637000
O 5.20312000 20.16750000 7.22003000
H 3.88337000 19.07020000 7.28054000
H 4.30525000 21.74710000 7.23754000
O 10.10720000 15.99600000 20.93550000
H 10.13810000 15.59670000 22.66780000
H 10.91140000 17.47230000 20.46720000
O 8.60397000 17.39510000 11.08700000
H 7.92360000 18.46700000 9.88795000
H 10.15880000 18.14480000 11.40950000
O 9.64118000 12.37390000 6.27130000
H 11.01140000 14.02880000 7.17651000
H 7.86882000 12.53950000 6.69472000
O 13.94450000 15.99880000 7.01549000
H 13.59600000 17.63980000 7.32125000
H 14.97400000 15.28200000 8.40379000
O 21.12160000 24.06110000 18.63740000
H 21.73030000 25.52977300 19.77160000
H 20.28980000 23.07560000 19.77330000
O 14.85780000 10.70350000 19.42490000
H 13.19110000 10.00940000 18.84060000
H 16.02760000 9.40830000 18.58510000
O 12.30130000 4.07367000 4.24577000
H 12.51470000 5.37058000 5.35885000
H 13.58400000 3.20215000 5.35949000
O 4.05517000 20.07910000 23.30610000
H 3.04187000 21.01690000 22.26780000
H 3.15822000 18.64560000 24.07070000
O 1.26300000 14.34940000 15.53240000
H 0.77417000 13.45990000 14.11610000
H 2.84923000 15.13540000 15.42110000
O 1.02100000 11.03750000 20.91840000
H 0.82167400 11.84820000 19.47620000
H 2.06527000 12.28860000 21.72230000
O 2.38402000 3.43420000 13.42850000
H 0.01909600 4.35929000 13.83320000
H 3.40898000 4.90121000 13.37960000
O 16.77930000 15.90860000 18.41300000
H 16.27070000 14.25490000 18.88710000
H 17.14230000 17.56940000 19.39350000
O 4.27666000 6.28058000 5.42643000
H 5.01537000 4.79753000 5.06208000
H 2.96537000 5.87475000 6.43229000
O 25.08470000 5.05270000 5.84980000
H 23.94090000 4.06742000 6.81518000
H 24.20430000 4.42577000 4.52114000
O 6.87443000 16.50990000 16.36090000
H 8.13780000 17.67890000 15.33010000
H 7.60015000 16.24970000 18.01360000
O 18.58810000 19.67220000 21.74490000
H 17.58870000 20.32410000 23.12000000
H 20.02760000 18.53800000 22.07060000
O 12.90410000 19.51730000 17.30920000
H 13.44450000 20.99920000 18.06700000
H 14.33420000 18.59350000 16.86130000
O 21.50600000 17.26570000 15.72990000
H 22.82170000 16.14780000 15.93690000
H 20.22570000 16.85970000 17.01540000
O 9.88841000 4.33506000 12.91790000
H 8.69188000 2.84191000 12.23290000
H 11.50330000 3.66253000 12.84040000
O 19.32640000 19.21430000 10.06610000
H 20.17450000 18.61000000 11.30820000
H 18.56660000 20.90410000 10.23630000
O 18.58820000 7.13138000 17.39620000
H 17.63570000 5.98197000 16.37560000
H 18.93850000 6.39557000 18.98730000
O 0.02026200 4.27598000 23.05180000
H 0.32325700 6.13717000 23.87280000
H 1.56725000 4.32347000 22.25320000
O 8.83348000 1.79445000 21.26410000
H 8.93296000 3.46842000 21.89050000
H 7.37932000 1.38805000 20.31190000
O 3.78873000 8.30007000 0.13785200
H 3.99678000 7.42419000 1.60937000
H 4.06532000 10.22360000 0.83785900
O 15.69110000 13.17600000 12.22990000
H 15.90290000 13.79370000 13.96410000
H 13.79380000 12.69600000 11.79640000
O 1.55851000 22.51150000 18.44580000
H 25.46604700 22.98190000 18.34230000
H 1.11273000 21.41900000 16.55910000
O 21.27970000 11.64080000 21.85160000
H 22.94100000 11.14310000 21.62930000
H 19.98660000 10.94810000 20.66780000
O 8.28072000 7.65483000 23.03160000
H 7.02269000 8.07930000 24.10890000
H 9.53517000 8.45725000 23.85030000
O 14.87110000 21.05300000 0.16626500
H 14.49610000 21.85790000 1.96126000
H 13.86250000 19.66790000 25.67453500
O 24.05490000 17.42370000 21.79790000
H 24.29260000 15.67510000 21.09120000
H 24.71950000 18.73260000 20.72350000
O 20.34180000 13.44410000 1.25839000
H 20.34990000 13.05930000 25.11600800
H 21.13350000 12.20350000 2.30660000
O 25.42179400 15.47020000 5.30119000
H 25.16634500 16.47090000 6.93097000
H 24.56550000 13.83840000 5.95235000
O 3.84010000 2.10481000 18.92500000
H 3.23487000 2.52808000 17.19890000
H 3.66022000 0.38607600 18.60650000
O 11.37800000 16.42450000 1.05317000
H 10.67530000 16.57230000 2.63099000
H 12.57980000 15.11180000 1.17621000
O 0.79402000 25.26740000 2.48152000
H 2.42307000 25.30521400 1.69873000
H 0.04127600 24.42480000 1.16420000
O 25.36224800 11.34360000 11.65410000
H 24.74280000 11.71070000 9.67018000
H 1.27313000 10.40740000 11.46740000
O 14.74310000 25.11644300 8.79080000
H 15.55840000 24.61150000 10.31750000
H 15.85580000 25.09864300 7.37752000
O 4.57575000 9.23621000 10.49580000
H 5.23423000 8.03142000 9.28524000
H 5.95070000 9.34581000 11.84440000
O 9.45913000 8.40390000 17.17690000
H 9.58091000 6.92076000 15.99840000
H 9.04766000 8.44907000 18.92420000
O 6.72434000 23.94490000 0.40181100
H 5.59242000 22.76710000 25.29872400
H 7.51051000 25.33970000 24.93560000
O 13.83130000 11.50140000 25.63191100
H 15.92630000 11.67660000 0.00170100
H 14.08030000 11.86090000 23.93830000
O 17.73290000 7.60978000 9.33965000
H 18.11200000 9.27443000 10.03120000
H 15.99940000 7.33164000 8.82709000
O 15.71340000 4.92258000 25.20650000
H 15.34200000 4.91556000 1.17742000
H 14.93830000 6.50172000 24.76960000
O 15.78570000 4.26843000 13.61700000
H 16.81320000 3.91016000 12.05320000
H 15.79830000 2.70544000 14.29830000
O 11.53650000 21.05470000 5.56408000
H 12.18850000 22.50010000 6.29623000
H 9.89301000 20.00640000 6.18563000
O 12.20350000 8.35605000 8.45187000
H 11.39290000 7.63952000 9.90710000
H 10.88610000 9.63540000 7.80703000
O 9.18644000 24.22130000 14.66020000
H 7.68446000 23.15270000 14.85940000
H 8.88019000 25.54268700 15.71920000
O 17.73320000 1.34096000 4.70801000
H 18.12970000 0.28180600 3.44334000
H 19.08860000 1.89274000 5.90461000
O 16.06820000 23.56330000 14.65210000
H 14.52310000 23.13030000 15.35100000
H 17.53780000 23.63530000 15.99770000
    
    &END COORD
  &END SUBSYS
  &DFT
    BASIS_SET_FILE_NAME  BASIS_SET
    POTENTIAL_FILE_NAME  GTH_POTENTIALS
    &QS
      EPS_DEFAULT 1.0E-10
    &END QS
    &MGRID
      NGRIDS 4
      CUTOFF 135
      REL_CUTOFF 115
    &END MGRID
    &XC
      &XC_FUNCTIONAL PADE
      &END XC_FUNCTIONAL
    &END XC
    &SCF
      SCF_GUESS ATOMIC
      EPS_SCF 1.0E-7
      MAX_SCF 300
      &DIAGONALIZATION  ON
        ALGORITHM STANDARD
      &END DIAGONALIZATION
      &MIXING  T
        METHOD BROYDEN_MIXING
        ALPHA 0.4
        NBROYDEN 8
      &END MIXING
    &END SCF
  &END DFT
  &PRINT
    &FORCES ON
    &END FORCES
  &END PRINT
&END FORCE_EVAL
