&GLOBAL
  PROJECT H2O_bulk
  RUN_TYPE ENERGY_FORCE
  PRINT_LEVEL LOW
&END GLOBAL
&FORCE_EVAL
  METHOD Quickstep
  &SUBSYS
    &KIND H
      ELEMENT   H
      BASIS_SET DZVP-GTH-PBE
      POTENTIAL GTH-PBE-q1
    &END KIND
    &KIND O
      ELEMENT   O
      BASIS_SET DZVP-GTH-PBE
      POTENTIAL GTH-PBE-q6
    &END KIND
    &CELL
      A     22.44552 0.0 0.0
      B     0.0 22.44552 0.0
      C     0.0 0.0 22.44552
    &END CELL
    &COORD

O 21.74120000 19.24180000 10.25180000
H 20.74500000 17.72030000 10.00090000
H 0.72848000 18.47240000 11.36200000
O 12.64660000 6.23537000 11.11620000
H 13.27510000 6.39160000 12.70920000
H 12.86420000 7.66906000 10.38780000
O 9.52382000 5.58077000 20.71200000
H 9.15255000 6.05582000 18.89310000
H 8.76448000 6.96704000 21.61750000
O 10.39850000 16.26010000 19.19990000
H 10.57170000 16.92920000 21.18910000
H 11.88800000 16.11770000 18.17860000
O 1.72340000 15.57510000 17.35710000
H 3.92624000 15.77560000 18.14340000
H 1.69319000 14.67080000 15.66670000
O 2.22089000 19.85740000 15.15790000
H 3.27734000 19.36570000 13.78050000
H 2.17573000 18.16140000 16.14710000
O 9.20043000 12.92310000 3.53026000
H 9.25391000 11.52430000 4.44124000
H 10.36170000 14.47330000 4.28323000
O 22.13670000 21.49310000 1.13867000
H 0.06968000 19.72600000 0.91516800
H 21.69700000 21.50200000 2.88984000
O 12.10360000 11.55080000 21.71886600
H 12.54580000 9.97326000 0.84472900
H 10.98260000 12.49710000 0.38372300
O 0.73944500 2.12298000 11.10670000
H 1.28369000 3.54182000 12.28560000
H 21.37894000 2.11846000 11.27180000
O 20.23600000 6.41506000 5.56776000
H 21.38260000 4.91160000 5.19643000
H 18.77190000 6.34967000 4.46385000
O 3.20787000 9.01980000 0.60446100
H 2.25193000 8.58832000 21.45667300
H 1.10293000 9.96535000 2.62781000
O 1.80946000 4.59564000 17.73080000
H 2.13850000 3.15390000 18.74860000
H 21.72732900 4.16533000 16.34690000
O 10.45350000 14.27040000 12.32110000
H 10.70020000 12.96190000 10.70210000
H 12.14830000 14.51290000 13.00050000
O 16.15870000 2.41976000 17.65920000
H 17.58240000 1.16748000 17.27900000
H 14.54970000 1.33938000 17.98510000
O 18.00300000 16.19410000 1.56510000
H 19.74430000 15.84120000 0.87166600
H 17.13650000 14.47790000 1.87201000
O 2.30085000 3.68108000 6.06662000
H 3.14732000 4.84269000 4.82811000
H 3.62246000 3.04598000 7.33002000
O 5.68257000 15.83250000 19.58880000
H 7.50698000 15.89790000 19.17900000
H 4.79538000 15.88720000 0.21048000
O 10.58030000 9.40525000 17.68250000
H 10.63480000 10.51120000 19.28690000
H 9.27968000 10.15100000 16.63830000
O 13.26300000 17.77640000 5.54104000
H 13.21870000 17.98940000 7.44195000
H 14.79520000 18.58650000 5.01412000
O 3.48178000 12.49890000 13.29300000
H 3.02222000 10.99030000 12.37660000
H 3.59861000 13.59540000 11.83630000
O 0.41544600 9.54837000 18.04350000
H 1.31960000 7.85780000 17.77770000
H 1.88520000 10.63390000 18.16550000
O 12.56870000 10.69720000 9.32026000
H 13.70600000 11.81800000 8.19894000
H 11.04970000 10.02740000 8.45105000
O 8.22117000 0.79189400 20.88540000
H 6.67081000 0.37311700 19.94060000
H 7.97141000 2.56705000 21.47960000
O 17.14380000 10.58170000 16.53130000
H 17.44410000 8.95650000 17.30130000
H 17.86750000 10.54190000 14.76280000
O 10.57340000 20.92990000 14.16930000
H 8.16579000 21.87220000 14.58030000
H 11.42990000 20.91690000 15.78100000
O 19.00550000 9.34657000 21.32180000
H 20.54730000 9.83475000 20.47010000
H 7.36724000 1.50984000 17.77030000
O 4.84317000 14.85210000 2.49415000
H 3.40248000 15.02270000 3.63612000
H 6.73605000 14.61600000 3.05694000
O 14.80550000 3.22239000 4.43038000
H 14.94370000 1.50654000 3.71759000
H 14.21800000 2.90743000 6.11265000
O 14.47600000 14.31960000 17.90730000
H 16.08860000 13.88120000 17.01590000
H 14.37940000 12.82470000 19.01240000
O 3.09766000 0.83978000 19.55600000
H 2.63742000 0.53628000 17.77720000
H 1.88124000 0.03628000 20.64330000
O 6.96272000 2.12868000 8.17834000
H 7.37195000 2.70275000 6.36692000
H 7.64670000 3.38962000 9.39667000
O 18.26620000 1.16998000 11.31980000
H 16.41160000 1.16328000 10.94740000
H 18.69610000 1.35798000 9.53358000
O 8.01374000 5.76107000 11.49820000
H 9.67350000 6.35138000 11.79880000
H 6.87872000 5.80591000 12.98800000
O 17.60900000 11.00320000 11.51430000
H 16.63890000 11.38350000 9.98121000
H 18.92510000 9.61555000 11.18380000
O 14.05060000 2.03828000 8.82742000
H 13.07240000 0.54899800 9.38033000
H 13.25010000 3.49885000 9.78483000
O 9.55548000 3.76995000 4.20293000
H 10.80020000 2.45144000 3.93583000
H 8.94004000 4.63182000 2.64746000
O 5.00775000 7.34130000 15.36510000
H 4.04948000 6.03964000 16.35520000
H 6.55165000 9.31451000 17.86240000
O 20.30910000 15.46650000 13.20220000
H 21.12900000 16.04400000 14.71430000
H 20.89950000 13.70170000 13.34480000
O 13.66590000 7.30091000 1.72142000
H 12.28580000 6.69143000 0.71300900
H 14.62220000 5.84278000 2.20658000
O 15.67250000 13.45780000 6.91858000
H 14.43170000 14.55950000 5.97483000
H 15.25080000 10.98930000 5.46182000
O 19.89040000 4.89381000 15.72150000
H 19.82990000 5.60167000 13.94860000
H 18.14070000 4.51193000 16.48190000
O 14.31300000 6.55693000 15.56640000
H 13.64400000 7.84653000 16.74130000
H 14.50140000 4.99350000 16.47230000
O 13.53320000 18.48750000 0.55970600
H 13.63850000 18.82650000 2.72637000
H 14.90060000 16.95660000 0.37984000
O 10.04330000 19.08270000 9.98005000
H 10.29310000 19.56860000 11.67090000
H 10.62970000 17.33340000 9.90867000
O 12.37290000 22.23650000 19.19330000
H 16.44210000 19.83280000 0.18218000
H 10.86530000 22.38390000 19.83120000
O 21.16860000 22.36500000 5.86961000
H 21.19740000 21.31790000 7.53364000
H 22.29550000 1.07378000 6.10062000
O 17.03560000 11.00290000 2.49913000
H 18.52230000 12.14880000 1.88625000
H 16.26600000 9.75209000 1.83335000
O 5.73345000 11.05510000 19.00050000
H 5.17753000 10.48050000 20.79510000
H 6.54501000 12.95470000 19.05830000
O 4.41671000 21.04720000 10.62800000
H 5.50468000 21.38070000 9.13873000
H 3.39539000 0.15408000 10.72700000
O 22.39420000 10.80000000 4.44493000
H 21.95240000 12.26190000 5.04438000
H 21.18690000 9.74890000 5.31666000
O 0.74208700 16.00200000 22.26070000
H 0.74023200 15.88060000 20.47830000
H 1.66578000 14.40780000 0.22558000
O 2.98683000 7.23856000 11.14840000
H 4.43485000 6.49451000 10.29120000
H 3.74948000 7.50338000 12.93990000
O 5.46148000 16.33800000 11.41180000
H 7.10804000 15.64340000 12.13900000
H 5.13252000 18.45060000 11.30320000
O 20.76870000 6.76830000 10.35930000
H 0.15068000 7.04729000 10.69660000
H 20.41330000 7.20184000 8.51329000
O 20.48360000 14.52760000 8.40296000
H 20.05860000 13.03350000 9.33246000
H 19.03100000 14.63150000 7.79607000
O 4.34291000 8.77631000 6.37573000
H 3.77363000 10.55950000 6.19600000
H 2.65261000 8.09790000 6.57056000
O 15.51090000 17.72760000 13.01880000
H 17.18600000 17.27620000 13.64450000
H 14.53690000 18.36930000 14.36220000
O 20.38140000 22.07430000 16.01690000
H 20.12480000 21.23700000 14.36090000
H 22.19800000 21.96920000 16.26130000
O 2.83876000 14.17190000 7.01184000
H 1.91574000 15.67670000 7.65185000
H 4.29121000 14.53770000 8.20281000
O 9.46868000 9.06999000 5.91719000
H 10.59340000 7.41502000 5.58819000
H 7.63658000 8.65225000 6.70494000
O 17.12260000 21.20400000 3.75248000
H 17.83590000 19.49940000 3.49988000
H 18.43120000 21.84450000 4.92048000
O 22.30380000 3.93328000 0.15418000
H 21.54830000 2.45034000 22.28960000
H 0.28078000 4.38630000 20.95430000
O 5.02422000 4.60181000 1.97288000
H 4.17664000 2.98132000 1.72884000
H 4.29776000 5.42108000 0.53454500
    
    &END COORD
  &END SUBSYS
  &DFT
    BASIS_SET_FILE_NAME  BASIS_SET
    POTENTIAL_FILE_NAME  GTH_POTENTIALS
    &QS
      EPS_DEFAULT 1.0E-10
    &END QS
    &MGRID
      NGRIDS 4
      CUTOFF 135
      REL_CUTOFF 115
    &END MGRID
    &XC
      &XC_FUNCTIONAL PADE
      &END XC_FUNCTIONAL
    &END XC
    &SCF
      SCF_GUESS ATOMIC
      EPS_SCF 1.0E-7
      MAX_SCF 300
      &DIAGONALIZATION  ON
        ALGORITHM STANDARD
      &END DIAGONALIZATION
      &MIXING  T
        METHOD BROYDEN_MIXING
        ALPHA 0.4
        NBROYDEN 8
      &END MIXING
    &END SCF
  &END DFT
  &PRINT
    &FORCES ON
    &END FORCES
  &END PRINT
&END FORCE_EVAL
