&GLOBAL
  PROJECT H2O_bulk
  RUN_TYPE ENERGY_FORCE
  PRINT_LEVEL LOW
&END GLOBAL
&FORCE_EVAL
  METHOD Quickstep
  &SUBSYS
    &KIND H
      ELEMENT   H
      BASIS_SET DZVP-GTH-PBE
      POTENTIAL GTH-PBE-q1
    &END KIND
    &KIND O
      ELEMENT   O
      BASIS_SET DZVP-GTH-PBE
      POTENTIAL GTH-PBE-q6
    &END KIND
    &CELL
      A     25.66797 0.0 0.0
      B     0.0 25.66797 0.0
      C     0.0 0.0 25.66797
    &END CELL
    &COORD

O 1.41853000 17.20620000 19.55360000
H 25.26885800 17.83800000 17.11460000
H 0.65153300 15.67320000 20.65960000
O 5.68689000 9.65259000 8.71803000
H 4.20017000 10.21740000 8.03771000
H 5.46423000 8.44252000 10.08070000
O 16.81020000 6.69346000 13.55710000
H 15.56630000 4.64480000 11.30240000
H 15.77070000 8.12317000 13.69300000
O 5.06376000 2.04178000 4.22261000
H 4.90041000 0.12667300 4.19310000
H 3.59125000 2.74685000 4.85042000
O 24.58690000 13.32840000 20.47880000
H 24.94630000 11.63170000 20.30620000
H 23.12290000 13.30730000 21.68420000
O 14.98460000 1.35053000 11.14710000
H 14.75510000 25.16417000 11.06830000
H 13.45500000 1.75282000 11.85770000
O 12.59370000 21.77730000 20.11270000
H 11.80560000 23.86380000 20.16710000
H 10.67810000 20.19800000 19.39040000
O 12.06610000 9.69493000 11.34380000
H 10.83220000 8.56381000 12.13800000
H 10.94890000 10.65340000 10.11140000
O 1.38853000 18.90080000 24.28090000
H 3.02718000 18.28890000 24.06930000
H 0.87350900 18.03380000 25.49650000
O 2.17047000 22.09590000 5.55606000
H 3.06318000 20.57880000 5.61201000
H 1.35098000 22.34780000 3.58393000
O 7.48601000 24.35290000 2.68207000
H 7.25586000 23.18800000 0.91975100
H 8.27204000 23.55480000 4.04815000
O 21.27230000 7.44772000 5.54323000
H 21.92420000 7.98273000 4.17065000
H 19.62060000 7.59720000 5.59856000
O 14.55650000 21.71480000 10.20180000
H 14.85090000 22.30170000 8.73735000
H 16.14140000 21.36250000 11.06110000
O 6.39347000 23.74270000 18.41400000
H 6.19856000 24.43490000 15.27430000
H 7.72841000 22.28440000 18.29390000
O 20.26030000 1.29357000 9.28365000
H 20.55950000 0.65298500 7.62764000
H 18.24670000 2.31682000 9.18156000
O 6.73671000 9.09374000 24.95800000
H 7.70520000 7.70503000 25.04700000
H 7.14877000 9.84114000 23.48070000
O 25.09020000 6.40801000 9.68578000
H 24.23450000 6.85526000 8.23252000
H 0.27533000 4.96760000 9.14523000
O 25.34110000 23.36990000 1.07323000
H 23.60750000 22.87510000 0.87499900
H 0.64793000 21.85720000 25.39992100
O 15.27560000 23.83030000 5.12072000
H 14.98520000 25.08540000 6.00498000
H 16.62710000 24.73630000 3.86334000
O 10.19420000 12.29040000 5.68958000
H 11.56790000 11.70780000 6.73983000
H 8.86397000 10.82730000 5.56114000
O 21.57280000 23.97910000 4.31786000
H 23.27300000 23.19720000 4.39106000
H 20.49430000 22.71670000 4.55186000
O 12.14090000 17.50150000 4.06389000
H 12.04100000 15.75890000 3.94897000
H 12.62280000 17.98320000 5.66398000
O 8.18816000 24.30880000 23.27890000
H 7.83996000 24.56800000 21.62610000
H 9.45743000 23.34140000 23.40480000
O 9.23739000 22.23870000 10.25560000
H 10.72280000 21.53440000 9.97211000
H 8.07370000 21.00910000 10.25360000
O 19.22630000 17.65620000 0.09703000
H 17.57230000 18.10240000 0.62553000
H 19.61370000 19.59120000 24.98110000
O 14.30040000 20.22360000 0.19915300
H 12.75850000 20.81050000 25.06588100
H 14.60370000 21.50270000 1.32872000
O 25.48100000 2.65298000 21.66990000
H 24.55160000 1.49982000 22.38750000
H 3.17073000 2.45795000 24.06400000
O 22.63820000 9.67173000 0.89866700
H 22.16370000 11.34450000 0.58852800
H 24.39940000 9.68145000 1.01224000
O 22.00410000 3.66202000 15.86780000
H 22.40970000 1.09554000 15.94400000
H 23.52640000 4.34547000 15.88300000
O 12.98050000 1.80364000 20.00430000
H 13.45360000 4.03995000 19.03540000
H 14.55850000 1.13682000 20.18580000
O 12.46350000 8.30896000 2.59315000
H 11.58650000 9.68530000 1.95564000
H 11.43090000 6.78919000 2.28323000
O 1.41331000 6.25589000 17.90830000
H 0.88357600 4.84862000 18.70470000
H 3.24414000 6.30311000 17.42280000
O 7.62440000 18.51190000 18.36360000
H 8.54114000 17.30170000 19.74690000
H 5.72235000 18.73360000 18.82550000
O 1.75986000 8.56016000 23.48890000
H 0.98168200 6.63718000 22.61280000
H 3.42083000 8.22751000 23.95450000
O 0.40238300 0.76952800 7.94242000
H 1.52201000 25.32173800 6.80499000
H 24.60529000 0.36567200 7.46277000
O 6.09996000 4.22890000 16.58540000
H 8.66518000 4.59604000 17.06920000
H 5.45890000 3.30541000 17.96090000
O 16.26420000 8.56571000 6.86800000
H 15.40760000 7.66022000 7.65017000
H 15.24570000 8.97288000 5.60565000
O 8.30864000 2.37562000 9.33327000
H 7.47395000 2.66393000 7.73642000
H 8.67634000 25.20529100 9.83248000
O 17.34290000 18.05240000 12.39420000
H 16.14370000 17.40450000 13.20810000
H 19.06550000 16.95390000 12.76640000
O 18.81780000 13.86300000 22.50110000
H 17.89450000 13.54720000 23.78450000
H 19.24210000 15.57230000 22.94340000
O 17.19930000 13.69810000 17.14630000
H 18.88150000 13.15090000 16.96120000
H 16.72000000 12.93630000 18.80610000
O 18.23930000 2.84494000 2.74980000
H 19.06820000 4.29274000 3.04738000
H 16.49400000 3.73790000 1.56079000
O 18.26810000 18.65730000 4.90973000
H 17.15640000 19.20790000 6.01445000
H 18.94940000 16.92340000 5.50519000
O 2.16126000 15.88210000 13.12870000
H 2.05981000 15.66590000 14.97550000
H 2.06374000 14.25280000 12.81340000
O 6.52481000 16.94040000 9.18925000
H 5.44073000 13.45010000 8.69696000
H 6.90215000 17.01070000 10.89640000
O 21.13830000 0.12733000 24.24390000
H 20.37990000 0.91623000 22.91460000
H 20.51210000 0.54923000 0.09623000
O 23.09910000 15.66060000 1.68783000
H 21.15030000 16.34260000 1.51047000
H 23.03960000 14.42490000 3.00214000
O 8.13894000 6.29011000 12.49110000
H 6.98943000 5.72596000 13.41250000
H 8.59548000 4.87204000 11.14490000
O 23.16760000 24.77350000 13.88680000
H 24.32380000 23.59220000 13.83240000
H 22.81970000 25.19020000 12.25380000
O 19.06610000 7.79793000 23.98890000
H 19.26180000 6.15015000 22.36190000
H 20.72620000 8.32953000 24.40630000
O 17.71650000 22.13520000 22.21070000
H 17.53940000 22.27510000 19.11010000
H 16.03040000 21.79300000 22.46510000
O 14.43400000 9.07936000 22.78690000
H 15.26340000 10.04570000 23.74730000
H 15.67750000 8.09415000 22.05250000
O 20.36240000 13.87860000 6.64610000
H 21.61080000 14.43580000 7.71213000
H 20.02550000 12.22780000 6.92417000
O 9.79614000 7.88972000 20.41740000
H 11.33980000 7.41083000 21.25310000
H 10.63910000 8.71054000 19.04080000
O 0.34121700 20.80120000 10.61060000
H 1.06916000 19.35900000 10.46060000
H 1.54746000 21.92890000 9.96868000
O 7.54839000 15.51130000 14.07600000
H 7.67635000 13.90670000 13.21830000
H 9.51760000 15.20980000 15.97030000
O 12.45550000 16.00120000 21.14350000
H 13.98920000 17.78730000 20.51750000
H 12.34690000 15.03500000 19.69200000
O 1.86940000 10.09500000 14.03280000
H 1.33811000 9.00321000 12.91420000
H 1.14616000 9.58689000 15.64360000
O 12.76730000 13.47440000 15.06600000
H 14.27730000 12.39300000 15.31920000
H 11.82750000 12.94580000 13.79610000
O 9.06490000 3.86234000 1.02009000
H 8.50985000 4.18849000 25.11519200
H 8.83215000 2.04738000 1.02105000
O 21.60800000 15.02880000 12.65040000
H 20.16680000 12.14450000 13.86450000
H 22.71010000 15.47820000 14.01460000
O 19.82700000 19.88830000 16.72060000
H 21.53550000 20.28220000 16.07750000
H 18.84830000 19.45160000 15.42800000
O 18.03390000 5.02438000 18.51050000
H 17.15360000 4.61366000 17.09450000
H 19.85920000 4.66848000 18.05500000
O 20.97150000 9.52407000 14.42980000
H 20.71830000 7.85537000 14.91350000
H 21.05540000 9.24744000 12.52760000
    
    &END COORD
  &END SUBSYS
  &DFT
    BASIS_SET_FILE_NAME  BASIS_SET
    POTENTIAL_FILE_NAME  GTH_POTENTIALS
    &QS
      EPS_DEFAULT 1.0E-10
    &END QS
    &MGRID
      NGRIDS 4
      CUTOFF 135
      REL_CUTOFF 115
    &END MGRID
    &XC
      &XC_FUNCTIONAL PADE
      &END XC_FUNCTIONAL
    &END XC
    &SCF
      SCF_GUESS ATOMIC
      EPS_SCF 1.0E-7
      MAX_SCF 300
      &DIAGONALIZATION  ON
        ALGORITHM STANDARD
      &END DIAGONALIZATION
      &MIXING  T
        METHOD BROYDEN_MIXING
        ALPHA 0.4
        NBROYDEN 8
      &END MIXING
    &END SCF
  &END DFT
  &PRINT
    &FORCES ON
    &END FORCES
  &END PRINT
&END FORCE_EVAL
