&GLOBAL
  PROJECT H2O_bulk
  RUN_TYPE ENERGY_FORCE
  PRINT_LEVEL LOW
&END GLOBAL
&FORCE_EVAL
  METHOD Quickstep
  &SUBSYS
    &KIND H
      ELEMENT   H
      BASIS_SET DZVP-GTH-PBE
      POTENTIAL GTH-PBE-q1
    &END KIND
    &KIND O
      ELEMENT   O
      BASIS_SET DZVP-GTH-PBE
      POTENTIAL GTH-PBE-q6
    &END KIND
    &CELL
      A     22.0477 0.0 0.0
      B     0.0 22.0477 0.0
      C     0.0 0.0 22.0477
    &END CELL
    &COORD

O 1.74488000 10.13130000 4.55406000
H 2.67036000 11.44830000 4.84829000
H 0.33895600 10.87820000 3.45005000
O 19.34860000 2.38631000 13.33880000
H 19.60890000 1.10508000 12.09280000
H 19.69510000 3.81486000 12.54520000
O 8.75607000 16.64040000 8.12392000
H 8.49374000 17.61700000 9.34221000
H 9.89994000 15.38720000 8.65886000
O 15.87970000 19.11200000 10.79500000
H 15.69910000 17.05180000 10.40130000
H 17.60630000 19.54480000 10.21280000
O 8.56443000 12.97590000 0.70497600
H 7.77583000 12.12250000 20.94720000
H 9.53949000 11.89940000 1.43074000
O 19.79080000 8.42859000 16.27760000
H 20.37090000 7.23488000 17.31890000
H 19.10630000 9.86192000 17.44510000
O 2.33028000 4.78278000 16.18230000
H 1.89355000 3.34876000 16.52570000
H 2.29498000 5.18083000 14.47150000
O 1.98183000 13.74750000 15.53560000
H 2.64502000 13.04520000 13.85810000
H 2.89097000 13.00000000 16.76510000
O 8.80938000 17.46590000 21.88830000
H 7.49927000 17.12150000 21.05420000
H 9.04511000 15.60990000 0.01042400
O 1.46524000 18.02470000 2.98619000
H 2.77826000 18.78260000 4.10793000
H 1.88599000 16.26480000 2.79630000
O 20.41730000 15.43970000 9.03966000
H 20.53620000 16.86360000 9.56416000
H 19.12570000 14.48520000 10.23980000
O 8.75016000 20.21370000 3.64821000
H 9.86373000 19.13030000 4.95851000
H 8.44385000 18.76280000 1.98279000
O 19.31580000 17.77300000 19.67930000
H 20.64590000 18.95330000 19.15260000
H 18.33180000 18.25230000 18.60340000
O 21.31290000 5.74706000 5.05709000
H 0.24378300 7.17437000 4.91061000
H 19.98630000 5.86484000 6.05822000
O 4.55649000 17.60530000 20.10750000
H 3.76299000 16.01400000 20.32190000
H 4.34116000 17.91050000 18.16350000
O 8.92325000 7.73267000 6.32516000
H 10.26350000 6.21629000 6.30189000
H 7.84435000 7.76096000 7.71231000
O 17.20130000 1.75343000 20.66720000
H 16.71340000 1.09701000 0.13330000
H 18.68960000 2.83689000 21.39770000
O 11.58670000 3.21189000 17.73390000
H 12.59180000 1.63833000 17.67160000
H 10.24460000 2.58655000 18.46380000
O 21.51330000 0.86336600 5.00841000
H 21.83790000 2.63793000 5.58763000
H 19.55970000 0.75733300 4.09129000
O 11.43280000 9.16614000 1.40234000
H 12.95630000 8.15985000 2.77060000
H 11.45840000 8.48800000 21.82920000
O 2.38858000 8.13832000 20.67120000
H 3.43430000 7.65002000 21.96360000
H 2.88135000 7.54202000 19.06820000
O 6.66998000 11.86790000 18.25710000
H 7.45827000 12.23690000 16.65490000
H 6.61110000 10.17490000 18.27180000
O 20.52440000 17.72760000 14.37730000
H 19.57500000 18.74520000 15.47670000
H 21.57450000 16.76870000 15.56960000
O 16.79840000 9.17312000 0.95938600
H 18.27000000 8.11608000 0.68591400
H 15.58090000 8.73745000 21.83420000
O 15.50010000 14.14950000 11.08410000
H 13.76610000 13.52640000 10.37400000
H 15.62370000 14.76110000 12.67280000
O 5.63546000 13.10690000 4.71703000
H 5.92280000 13.66240000 3.27111000
H 6.17930000 14.24220000 6.21749000
O 9.00358000 13.76380000 13.85590000
H 8.99342000 15.38760000 13.39940000
H 10.84900000 14.07520000 14.29280000
O 7.39389000 1.92374000 20.18480000
H 5.89558000 0.95509400 20.81690000
H 8.15713000 2.75676000 0.01590000
O 20.27220000 5.43394000 0.28180000
H 20.43520000 5.30938000 1.99026000
H 21.48560000 6.41922000 21.64170000
O 13.39700000 17.22060000 14.87660000
H 13.30540000 18.11630000 16.50460000
H 14.43610000 18.48480000 14.32200000
O 0.87306800 0.31963100 17.22990000
H 0.75960300 0.82412300 19.04920000
H 21.06040000 0.52039600 16.72910000
O 4.73513000 20.25550000 6.44224000
H 6.34859000 20.46930000 5.51691000
H 4.49744000 0.03810000 6.85972000
O 6.47701000 6.78904000 17.63400000
H 5.03430000 5.90257000 16.89720000
H 7.19629000 5.65525000 18.55470000
O 20.22480000 12.93420000 2.20221000
H 18.74190000 12.11870000 1.77424000
H 19.35790000 14.42370000 2.79292000
O 16.97270000 21.40830000 16.42010000
H 16.63050000 0.10528400 17.89430000
H 17.59310000 0.80665600 15.35230000
O 11.69690000 12.38910000 7.98111000
H 11.15900000 10.62300000 8.00540000
H 13.20680000 12.39500000 7.09982000
O 19.10920000 16.92770000 4.57462000
H 20.88400000 17.04000000 4.37779000
H 19.16910000 16.64390000 6.30862000
O 15.09770000 8.94441000 12.03210000
H 14.05520000 9.71370000 10.67760000
H 14.62880000 6.77479000 12.04080000
O 7.50525000 9.13891000 11.28700000
H 8.69254000 8.04742000 12.04300000
H 8.36654000 10.66990000 11.58160000
O 13.14650000 20.18580000 20.10270000
H 11.37010000 19.49210000 20.75440000
H 14.57930000 19.63750000 21.01520000
O 13.35470000 0.06830000 7.21318000
H 13.48510000 20.70660000 8.36293000
H 11.18430000 0.48232400 7.92640000
O 17.65130000 12.62640000 18.76810000
H 18.68960000 13.98900000 19.28130000
H 16.30150000 12.50780000 20.03100000
O 2.41787000 13.08230000 21.15440000
H 0.80904400 13.42700000 22.00010000
H 2.49550000 11.19340000 20.94650000
O 13.30410000 11.34740000 15.60530000
H 14.35540000 10.45770000 14.67510000
H 14.62140000 12.55510000 16.15000000
O 5.25580000 6.60557000 2.83843000
H 6.94220000 6.40500000 3.65371000
H 4.69047000 8.28027000 3.30079000
O 20.19290000 6.71676000 11.67050000
H 22.03920000 7.18750000 10.78260000
H 20.22420000 7.72596000 13.01810000
O 13.07770000 7.91928000 19.23270000
H 12.78970000 6.37241000 18.53660000
H 13.14110000 9.04865000 18.05310000
O 17.42350000 6.90845000 7.66601000
H 16.82680000 8.62160000 7.47653000
H 17.99780000 6.56904000 9.26411000
O 8.77494000 1.36664000 9.46246000
H 9.26522000 2.44233000 10.95010000
H 8.37073000 22.01160000 10.31970000
O 14.38020000 13.56320000 0.82513100
H 13.27350000 11.83430000 0.99299800
H 13.23070000 14.98800000 0.85293400
O 16.57680000 21.17960000 3.38860000
H 15.27010000 21.62540000 4.12666000
H 17.43550000 19.75300000 4.05979000
O 10.27160000 5.15968000 12.91410000
H 12.15040000 4.64744000 12.89570000
H 9.88228000 4.72617000 14.48170000
O 2.99682000 18.29120000 10.57190000
H 3.96165000 18.38710000 8.93550000
H 3.29287000 16.51690000 11.09180000
O 14.72900000 3.74612000 11.53060000
H 14.22840000 2.70039000 10.26300000
H 16.58530000 3.53058000 12.51370000
O 4.63033000 3.79373000 7.15416000
H 6.14699000 3.12046000 7.84174000
H 5.27374000 5.06628000 5.60113000
O 20.93770000 21.16640000 9.73117000
H 21.20140000 21.48260000 7.70136000
H 0.42383700 20.08750000 10.41790000
O 13.12160000 5.40709000 4.93885000
H 12.45930000 4.12703000 4.27626000
H 14.59130000 4.82605000 5.74208000
O 8.67836000 19.18020000 12.86930000
H 7.30615000 19.61650000 14.13130000
H 10.09810000 19.20490000 14.05880000
O 16.16500000 11.81480000 5.84571000
H 17.60680000 12.87990000 5.72918000
H 15.86200000 11.63560000 4.12072000
O 3.15402000 12.54980000 10.12170000
H 1.59605000 12.98990000 8.74399000
H 4.19896000 10.69230000 9.61499000
O 4.29726000 19.20580000 15.69320000
H 3.66977000 17.88650000 14.46840000
H 2.77939000 20.25630000 16.11630000
O 10.74210000 2.13263000 2.20159000
H 12.18330000 1.39109000 1.44667000
H 9.83708000 0.48272900 2.83548000
O 2.67228000 1.43900000 21.91870000
H 1.43878000 0.56096100 1.16596000
H 2.76990000 3.32518000 0.42722400
O 2.84213000 6.67094000 11.22670000
H 3.32163000 5.53116000 10.05930000
H 4.83440000 7.26555000 11.22620000
    
    &END COORD
  &END SUBSYS
  &DFT
    BASIS_SET_FILE_NAME  BASIS_SET
    POTENTIAL_FILE_NAME  GTH_POTENTIALS
    &QS
      EPS_DEFAULT 1.0E-10
    &END QS
    &MGRID
      NGRIDS 4
      CUTOFF 135
      REL_CUTOFF 115
    &END MGRID
    &XC
      &XC_FUNCTIONAL PADE
      &END XC_FUNCTIONAL
    &END XC
    &SCF
      SCF_GUESS ATOMIC
      EPS_SCF 1.0E-7
      MAX_SCF 300
      &DIAGONALIZATION  ON
        ALGORITHM STANDARD
      &END DIAGONALIZATION
      &MIXING  T
        METHOD BROYDEN_MIXING
        ALPHA 0.4
        NBROYDEN 8
      &END MIXING
    &END SCF
  &END DFT
  &PRINT
    &FORCES ON
    &END FORCES
  &END PRINT
&END FORCE_EVAL
