&GLOBAL
  PROJECT H2O_bulk
  RUN_TYPE ENERGY_FORCE
  PRINT_LEVEL LOW
&END GLOBAL
&FORCE_EVAL
  METHOD Quickstep
  &SUBSYS
    &KIND H
      ELEMENT   H
      BASIS_SET DZVP-GTH-PBE
      POTENTIAL GTH-PBE-q1
    &END KIND
    &KIND O
      ELEMENT   O
      BASIS_SET DZVP-GTH-PBE
      POTENTIAL GTH-PBE-q6
    &END KIND
    &CELL
      A     46.937    0.000000000    0.000000000
      B     0.000000000    44.121    0.000000000
      C     0.000000000    0.000000000    45.182
    &END CELL
    &COORD

O 1.58979 1.10304 45.1358
H 1.05982 1.17082 44.4015
H 0.960074 1.17508 0.679303
O 4.95262 4.32844 44.8486
H 4.3513 4.89957 44.3811
H 5.4784 3.87914 44.1802
O 5.04055 3.70795 2.59548
H 5.39448 2.89519 2.29234
H 4.90876 4.2308 1.80651
O 2.86999 4.31647 5.06198
H 3.3762 4.41468 5.8311
H 3.44199 3.9836 4.34738
O -0.0549974 1.30971 2.0773
H 0.196833 1.89734 2.8557
H 46.5366 0.580438 2.50765
O 2.62818 7.24285 4.81905
H 2.51753 6.30393 4.73714
H 1.86057 7.64624 5.25725
O 5.94627 2.19423 42.9677
H 5.28897 1.52046 42.706
H 6.61384 2.20416 42.3016
O 0.399363 3.2438 3.96137
H 1.20401 3.54666 4.44534
H 46.6352 3.30775 4.66457
O 2.60788 8.63921 2.42105
H 2.46702 8.00161 3.10433
H 1.79459 8.59382 1.91902
O 47.5297 8.97075 6.18254
H 46.6024 9.06747 6.03545
H 47.803 9.87879 6.16715
O 34.484 18.4415 38.3545
H 35.1974 17.8128 38.3254
H 33.7497 17.8891 38.6601
O 3.99951 43.8736 0.414726
H 3.74305 43.3456 1.19222
H 3.18722 0.243998 0.140298
O 6.00719 1.6122 0.882911
H 6.21058 1.94947 0.0440979
H 5.4965 0.771216 0.798399
O 12.9687 42.9256 8.87055
H 12.6747 42.0971 9.30956
H 13.8141 42.7021 8.48575
O 4.42876 5.22906 6.95572
H 5.27821 4.80293 7.18924
H 4.56169 6.12082 6.6786
O 40.857 34.2873 22.2516
H 40.2181 34.4787 21.5318
H 41.39 33.4775 21.823
O 9.74382 0.984092 3.69303
H 9.08559 0.311511 3.37774
H 10.5983 0.480661 3.74758
O 9.56639 6.78769 43.2711
H 10.0436 7.16774 42.5552
H 8.83853 7.38479 43.4305
O 14.5317 5.2931 5.74111
H 14.4758 6.26038 5.56775
H 13.6741 4.91863 5.5055
O 11.8825 4.5803 5.11136
H 11.279 4.97061 5.83544
H 11.1814 4.33556 4.41309
O 9.70186 1.91671 7.1319
H 9.51707 1.32937 6.37341
H 9.37213 1.53207 7.96076
O 7.15363 4.52008 4.44446
H 7.97438 4.29177 3.96867
H 6.40392 4.26819 3.88213
O 13.6564 43.1174 5.79629
H 13.0282 42.838 6.4759
H 14.1985 43.7038 6.32758
O 12.5268 2.95885 7.88166
H 11.665 2.64996 7.51444
H 12.4377 3.91244 7.99851
O 7.17655 4.14177 6.97003
H 7.4913 3.25163 7.16993
H 7.0297 4.21542 6.0421
O 9.26493 3.64593 2.93481
H 9.61156 2.72586 2.95488
H 9.34729 3.95985 1.98538
O 10.3857 5.14507 45.4333
H 11.0482 5.67687 45.7992
H 10.346 5.57781 44.5763
O 12.194 43.5288 3.38327
H 12.8484 43.6236 2.66481
H 12.7762 43.5104 4.18781
O 15.1314 0.817511 7.17481
H 16.1079 0.883156 6.97287
H 14.7621 1.69533 7.22934
O 11.5462 1.67147 10.3612
H 12.3157 1.1003 10.4972
H 11.9305 2.28257 9.66935
O 9.8614 5.53382 6.84682
H 9.26701 6.25606 6.69019
H 9.26969 4.85754 7.14419
O 9.00704 45.1225 9.5491
H 9.91973 0.787198 9.73339
H 8.87639 45.761 10.2569
O 17.8158 1.0692 6.83866
H 18.3128 1.76838 6.33977
H 18.3823 0.270625 6.66231
O 19.784 5.40471 0.213341
H 20.4357 5.1434 0.902167
H 18.9191 5.2724 0.693849
O 22.5258 4.4428 2.45437
H 23.1364 4.47557 1.71217
H 22.5674 5.29911 2.91114
O 22.1886 2.87882 4.59171
H 22.4211 3.3197 3.73858
H 22.5651 1.94459 4.7168
O 20.5676 43.3235 6.80876
H 21.2536 43.7979 6.29311
H 20.6459 42.382 6.64269
O 19.4941 2.93051 5.7388
H 19.8579 3.2988 6.55648
H 20.274 2.83019 5.1865
O 19.9364 5.85654 42.6954
H 19.7786 4.91876 42.5198
H 19.9667 5.88546 43.6854
O 22.918 0.254435 5.36835
H 23.5372 0.358044 6.11037
H 23.3816 -0.108151 4.61116
O 20.8539 3.71804 8.5033
H 20.955 2.86552 9.02381
H 20.9049 4.42252 9.13387
O 16.9173 4.53944 4.30311
H 16.0796 4.75281 4.73745
H 17.4805 4.24037 5.02812
O 17.45 4.9764 1.69183
H 16.9159 5.76151 1.70785
H 17.4142 4.6875 2.60253
O 21.3546 6.59032 40.3548
H 20.749 6.37894 41.0741
H 21.0821 7.4845 40.2468
O 25.0256 43.7029 2.88555
H 26.0085 -0.109111 3.01577
H 24.8823 43.6288 1.9316
O 24.6628 0.772291 7.58244
H 25.2667 1.52787 7.6966
H 24.823 44.3359 8.42434
O 23.0737 4.24292 6.65592
H 22.4507 4.14621 7.39581
H 22.8032 3.76091 5.85013
O 21.2107 0.963167 9.19658
H 20.3816 0.511784 9.4684
H 21.3387 0.495518 8.33905
O 27.6661 0.707478 3.28499
H 28.6118 0.43426 2.94633
H 27.7638 1.20505 4.19828
O 27.7378 7.96417 1.32764
H 27.2359 8.48553 1.89946
H 28.2469 8.58676 0.78486
O 29.04 9.37136 -0.813814
H 29.2839 9.38925 43.4782
H 29.3723 10.1913 -0.537048
O 29.3124 6.92084 7.84275
H 29.6542 6.21037 8.39467
H 28.8401 6.46254 7.13281
O 28.2652 2.98603 6.30091
H 29.1497 2.59825 6.33435
H 27.8507 2.76339 7.17782
O 27.9231 5.50384 5.96722
H 28.0879 4.52103 6.15234
H 28.2919 5.45782 5.0435
O 29.7187 41.866 0.753593
H 29.0058 42.1084 0.102635
H 29.9376 41.0627 45.5184
O 30.9769 2.01348 6.57201
H 31.5638 2.15024 5.84323
H 31.511 1.53736 7.232
O 25.4163 5.4164 7.73132
H 24.5907 5.29146 7.25268
H 26.0179 5.73882 7.05092
O 24.1239 4.41813 0.397141
H 24.6068 3.58576 0.106162
H 24.8334 5.11933 45.5116
O 26.4443 5.97237 44.9409
H 26.8086 5.71463 44.087
H 27.1054 6.57623 45.2253
O 30.1808 43.9439 2.39841
H 31.0753 44.2104 2.69695
H 30.2877 43.2231 1.82239
O 27.8151 40.6223 44.0962
H 27.7042 40.8131 43.1778
H 27.1266 39.8946 44.2486
O 36.4643 34.983 21.4957
H 35.8514 35.2532 22.2471
H 37.2917 35.4725 21.7061
O 30.3705 9.20779 8.97087
H 29.774 8.55119 8.43451
H 29.8775 9.95998 9.16063
O 26.5738 2.93524 8.51752
H 26.0578 3.82708 8.24976
H 26.6114 3.01114 9.45272
    
    &END COORD
  &END SUBSYS
  &DFT
    BASIS_SET_FILE_NAME  BASIS_SET
    POTENTIAL_FILE_NAME  GTH_POTENTIALS
    &QS
      EPS_DEFAULT 1.0E-10
    &END QS
    &MGRID
      NGRIDS 4
      CUTOFF 135
      REL_CUTOFF 115
    &END MGRID
    &XC
      &XC_FUNCTIONAL PADE
      &END XC_FUNCTIONAL
    &END XC
    &SCF
      SCF_GUESS ATOMIC
      EPS_SCF 1.0E-7
      MAX_SCF 300
      &DIAGONALIZATION  ON
        ALGORITHM STANDARD
      &END DIAGONALIZATION
      &MIXING  T
        METHOD BROYDEN_MIXING
        ALPHA 0.4
        NBROYDEN 8
      &END MIXING
    &END SCF
  &END DFT
  &PRINT
    &FORCES ON
    &END FORCES
  &END PRINT
&END FORCE_EVAL
