&GLOBAL
  PROJECT H2O_bulk
  RUN_TYPE ENERGY_FORCE
  PRINT_LEVEL LOW
&END GLOBAL
&FORCE_EVAL
  METHOD Quickstep
  &SUBSYS
    &KIND H
      ELEMENT   H
      BASIS_SET DZVP-GTH-PBE
      POTENTIAL GTH-PBE-q1
    &END KIND
    &KIND O
      ELEMENT   O
      BASIS_SET DZVP-GTH-PBE
      POTENTIAL GTH-PBE-q6
    &END KIND
    &CELL
      A     46.937    0.000000000    0.000000000
      B     0.000000000    44.121    0.000000000
      C     0.000000000    0.000000000    45.182
    &END CELL
    &COORD

O 0.838152 -0.382102 0.997112
H 46.7866 -0.232895 0.990595
H 1.1507 -0.0185694 1.82624
O 5.68008 3.91553 45.2936
H 4.99255 4.50837 45.1139
H 5.23901 3.03394 0.0860276
O 6.43641 5.25439 2.58973
H 7.34833 4.91397 2.98567
H 6.26278 4.63856 1.85485
O 4.30563 4.89546 4.84894
H 4.9065 4.97714 5.57943
H 4.79788 5.13934 4.09138
O 1.90565 44.6296 3.44918
H 2.1802 1.39635 3.71756
H 2.33093 44.0466 4.18198
O 1.53812 6.50652 6.77145
H 2.46473 6.40463 6.55535
H 1.08123 6.26058 5.99131
O 4.83399 1.36798 -0.0476236
H 3.9261 1.17296 44.8757
H 5.49076 0.946445 44.4959
O 3.89389 1.91923 5.23296
H 4.01879 2.88378 4.93085
H 4.09285 1.75281 6.12949
O 0.501778 9.08402 7.00343
H 0.944698 8.25099 7.0248
H 0.173629 9.21389 7.89451
O -0.310743 5.93741 4.44127
H 45.679 6.01486 4.46876
H -0.16026 5.95057 3.49727
O 44.1126 10.5472 42.9247
H 43.8394 9.71391 43.2943
H 43.5523 11.1579 43.404
O 2.17398 1.19252 44.2769
H 1.6256 1.7787 43.7247
H 1.5795 0.618761 44.8536
O 5.77622 1.15484 2.83856
H 5.32541 1.2622 2.01631
H 5.06053 1.31368 3.51694
O 10.3778 43.0527 12.5638
H 10.9985 43.2204 13.2667
H 10.8813 43.1998 11.7526
O 6.03848 4.91211 7.23873
H 6.95384 4.62306 7.50428
H 5.78922 5.6738 7.79911
O 45.5613 41.582 13.1883
H 44.6314 41.9377 13.13
H 45.8245 41.5379 12.1767
O 8.69386 1.21777 3.47866
H 7.7675 1.11714 3.20257
H 9.26121 0.701363 2.87673
O 12.4938 5.94047 44.4808
H 12.758 5.18598 43.9177
H 13.3289 6.1329 -0.215625
O 14.5748 7.88329 5.58919
H 14.6859 8.74715 5.98894
H 13.6005 7.69763 5.61467
O 11.66 7.83852 5.8671
H 11.3879 7.74261 6.82791
H 11.3994 7.01637 5.46453
O 9.36182 1.56946 6.25745
H 8.98513 1.38263 5.40837
H 9.06927 0.962254 6.97315
O 9.68455 5.68089 5.45549
H 9.47075 5.01739 4.73023
H 8.97638 6.3055 5.61539
O 12.9581 -0.264365 1.8296
H 13.4346 -0.576066 1.06715
H 13.6533 0.0532872 2.41755
O 12.0831 0.839745 5.98405
H 11.1335 1.0786 5.96841
H 12.366 1.37562 6.71411
O 8.66905 4.45529 7.99164
H 8.93468 3.58413 8.28318
H 9.07402 4.62352 7.06951
O 9.23726 3.96095 3.29954
H 9.06551 2.93323 3.28013
H 9.84701 4.23311 2.50053
O 10.2648 5.12311 0.975303
H 9.51344 5.39425 0.495301
H 11.0214 5.36486 0.409046
O 10.374 0.217654 1.82479
H 10.2918 44.6104 0.923136
H 11.3229 0.125332 1.8407
O 14.2852 0.595647 3.99918
H 15.0917 1.03147 4.30988
H 13.6124 0.775055 4.62125
O 11.8992 42.8105 9.06433
H 12.5197 42.1642 9.38271
H 12.2205 42.9672 8.18508
O 10.0986 7.50321 8.71299
H 10.1005 7.94657 9.54381
H 9.75334 6.61574 8.87939
O 8.94328 0.172971 8.50731
H 9.76492 43.9008 8.79289
H 8.31147 43.5819 8.71097
O 16.841 1.87809 4.63017
H 17.2001 2.68903 4.2869
H 17.5719 1.34709 4.99446
O 19.6942 3.53758 0.92653
H 20.3784 3.65624 1.56978
H 19.0211 4.13388 1.24593
O 22.4159 4.81786 2.51998
H 23.379 4.6385 2.43413
H 22.1946 5.77418 2.44036
O 21.4573 4.00534 4.93162
H 21.8457 4.32304 3.98384
H 21.5083 3.07167 4.90929
O 19.2181 0.235682 5.84003
H 20.1355 0.524463 5.50718
H 19.157 -0.68775 5.5819
O 18.6928 5.03775 5.98014
H 18.7483 4.96174 6.96878
H 19.5924 4.75621 5.66825
O 20.2767 1.8772 43.4059
H 20.6372 2.61785 42.9178
H 19.923 2.16962 44.2989
O 21.7093 1.23895 5.21888
H 22.225 1.26055 6.04906
H 22.362 0.941876 4.52177
O 18.948 4.78538 8.68679
H 19.0545 3.79502 8.73912
H 18.304 4.95496 9.39154
O 16.736 6.63776 4.3957
H 15.9463 7.01303 4.75682
H 17.2586 6.0959 5.01043
O 17.7513 5.51471 1.73603
H 17.5259 6.17897 1.09075
H 17.426 5.82472 2.58858
O 20.5457 43.4053 42.097
H 20.5483 44.2549 42.5381
H 20.9693 43.6496 41.2814
O 23.4937 0.929528 3.0667
H 24.4109 1.21091 3.23222
H 23.5369 0.0400758 2.70813
O 22.6478 1.08146 7.885
H 23.4651 1.41552 8.13517
H 22.8395 0.176141 7.9623
O 22.4359 5.53232 6.99283
H 21.6701 5.93118 7.42335
H 22.0339 4.87127 6.39147
O 19.3219 2.0039 8.56302
H 20.2752 1.84484 8.66731
H 19.1206 1.53744 7.69847
O 26.1325 1.73773 3.44612
H 26.8676 1.50262 2.89334
H 26.3056 1.69759 4.43795
O 29.1005 6.02309 44.7005
H 29.2672 6.75037 44.0905
H 29.8161 5.48292 44.6652
O 30.0911 7.31474 2.43395
H 29.6435 6.81268 1.76076
H 29.7084 8.21984 2.30929
O 29.8487 6.82041 7.21992
H 29.7321 7.52628 6.61102
H 29.0597 6.28489 7.07203
O 26.8606 1.52517 6.13691
H 27.7248 1.72537 6.43449
H 26.2187 1.71107 6.85474
O 27.1117 6.06029 6.24798
H 26.8826 5.37339 5.66964
H 27.0415 6.86702 5.64506
O 30.0233 42.6362 45.1399
H 30.9235 42.3619 0.0825735
H 29.8273 42.0303 44.3958
O 29.5402 1.6345 6.75448
H 30.2768 2.24349 6.65893
H 29.8707 0.843655 7.16565
O 24.842 4.68725 8.45644
H 24.0827 4.97866 7.93139
H 25.4587 5.39695 8.32625
O 25.3077 4.22395 2.59255
H 25.6819 3.3444 2.81794
H 25.8354 4.62598 1.8594
O 26.337 5.92021 0.728999
H 25.8659 6.42123 0.0921219
H 27.2439 5.90572 0.381483
O 27.9044 0.840581 1.17852
H 28.7474 0.391126 0.978539
H 27.3613 0.252033 0.701545
O 32.7116 41.5722 -0.626279
H 33.486 42.0997 -0.940339
H 32.8143 40.7691 44.0475
O 32.373 41.4388 12.8383
H 32.7483 42.2348 13.2728
H 33.0907 40.8048 12.8961
O 31.6015 6.86882 9.49783
H 30.9161 6.92777 8.85691
H 31.4924 7.67739 10.1089
O 25.2495 2.11724 8.29257
H 25.0144 3.15329 8.36262
H 25.7062 1.9949 9.08757
    
    &END COORD
  &END SUBSYS
  &DFT
    BASIS_SET_FILE_NAME  BASIS_SET
    POTENTIAL_FILE_NAME  GTH_POTENTIALS
    &QS
      EPS_DEFAULT 1.0E-10
    &END QS
    &MGRID
      NGRIDS 4
      CUTOFF 135
      REL_CUTOFF 115
    &END MGRID
    &XC
      &XC_FUNCTIONAL PADE
      &END XC_FUNCTIONAL
    &END XC
    &SCF
      SCF_GUESS ATOMIC
      EPS_SCF 1.0E-7
      MAX_SCF 300
      &DIAGONALIZATION  ON
        ALGORITHM STANDARD
      &END DIAGONALIZATION
      &MIXING  T
        METHOD BROYDEN_MIXING
        ALPHA 0.4
        NBROYDEN 8
      &END MIXING
    &END SCF
  &END DFT
  &PRINT
    &FORCES ON
    &END FORCES
  &END PRINT
&END FORCE_EVAL
