&GLOBAL
  PROJECT H2O_bulk
  RUN_TYPE ENERGY_FORCE
  PRINT_LEVEL LOW
&END GLOBAL
&FORCE_EVAL
  METHOD Quickstep
  &SUBSYS
    &KIND H
      ELEMENT   H
      BASIS_SET DZVP-GTH-PBE
      POTENTIAL GTH-PBE-q1
    &END KIND
    &KIND O
      ELEMENT   O
      BASIS_SET DZVP-GTH-PBE
      POTENTIAL GTH-PBE-q6
    &END KIND
    &CELL
      A     46.937    0.000000000    0.000000000
      B     0.000000000    44.121    0.000000000
      C     0.000000000    0.000000000    45.182
    &END CELL
    &COORD

O 0.943433 0.0389348 0.167762
H 0.24308 0.164314 44.644
H 0.784924 0.661599 0.888621
O 5.39555 4.43454 44.5252
H 4.7628 4.97697 44.0947
H 5.62714 3.72618 43.8787
O 5.10346 3.49416 2.01626
H 5.26406 2.57989 1.82675
H 5.13444 3.87683 1.08931
O 3.24212 4.75508 4.27802
H 3.75804 4.45513 5.01777
H 3.64439 4.27212 3.53772
O 46.5498 1.80607 2.06086
H 0.0173653 2.39721 2.68266
H 45.656 2.14891 2.03833
O 3.40596 7.97302 4.42299
H 3.4122 6.9728 4.4995
H 2.85056 8.28306 5.12996
O 5.89532 2.24877 42.6508
H 5.90016 1.2633 42.7087
H 6.18798 2.43469 41.7424
O 0.885289 3.22861 4.28943
H 1.70639 3.83779 4.22694
H 0.428213 3.32078 5.12334
O 2.16395 8.51528 1.86152
H 2.57332 8.27036 2.70181
H 1.9532 7.66916 1.46266
O 1.81738 9.96139 6.09521
H 1.39196 9.8818 6.95038
H 1.64802 10.8719 5.90069
O 31.9751 20.3666 37.231
H 32.256 21.2728 37.0564
H 32.5119 19.8726 36.6309
O 3.6227 43.4621 0.097701
H 3.43189 42.7246 45.8236
H 2.74389 43.8884 0.0759231
O 5.65012 0.691718 1.361
H 6.4347 0.35727 0.83346
H 4.94588 0.151334 0.956925
O 13.2273 43.1505 8.92752
H 13.4143 42.2793 9.2177
H 13.9786 43.4451 8.36147
O 4.67587 4.1101 6.55216
H 4.43872 3.33571 7.05912
H 5.59311 4.3513 6.65607
O 40.7442 32.1119 24.7133
H 40.4958 33.0863 24.7716
H 41.6842 32.1866 24.4533
O 9.89587 0.779573 2.5062
H 9.10133 0.386447 2.14899
H 10.5143 0.119911 2.94792
O 9.54088 6.12541 43.8691
H 10.244 5.79427 43.2852
H 8.74699 5.66011 43.6125
O 14.7663 4.2096 5.71706
H 15.03 5.02977 6.16407
H 13.8126 4.25193 5.4564
O 12.1716 4.36253 5.51863
H 11.7235 5.19151 5.66078
H 11.5531 3.8221 4.94768
O 9.67628 2.7115 7.19718
H 9.67216 2.08434 6.49762
H 9.60248 2.24695 8.02636
O 7.46809 3.99102 3.64503
H 8.29425 3.56254 3.4527
H 6.67902 3.71333 3.12374
O 13.3253 42.7961 5.76788
H 12.9444 42.4954 6.58816
H 14.1023 43.2402 6.18506
O 13.8548 2.41278 7.53756
H 12.9596 2.766 7.42922
H 14.4005 3.03118 7.04149
O 7.65595 4.90411 6.31322
H 8.25772 4.15611 6.58796
H 7.67422 4.87344 5.40166
O 10.1346 3.34839 3.53767
H 9.9755 2.48969 3.18859
H 10.2443 3.9327 2.73971
O 9.93503 5.55131 1.60236
H 10.2301 6.3517 1.20643
H 9.28943 5.46215 0.863072
O 12.0199 43.5126 3.28175
H 12.3356 42.7484 2.76426
H 12.3733 43.2879 4.17613
O 15.4755 0.198889 7.36104
H 16.4082 0.243805 7.08108
H 15.0794 1.07171 7.36991
O 11.8079 1.09497 10.2822
H 11.9052 0.212822 9.81549
H 12.5148 1.60979 9.88051
O 10.2384 6.24425 6.1361
H 10.0897 7.13567 5.86027
H 9.34696 5.90498 6.30434
O 9.36706 2.04585 9.85936
H 10.2898 1.75286 10.0606
H 8.80868 1.31742 10.138
O 18.0243 0.78655 6.70821
H 18.3924 1.48372 6.07546
H 18.7278 0.190008 6.70586
O 20.1221 5.05346 44.8455
H 20.758 4.75508 0.294614
H 19.2716 5.11136 0.118939
O 21.9308 4.51891 2.06304
H 22.7816 4.29321 1.61314
H 21.9442 5.47107 2.23599
O 21.7643 2.86753 4.87066
H 21.9144 3.16267 3.95713
H 22.3344 2.04906 5.06137
O 21.1961 43.5426 6.77698
H 21.9397 43.8472 6.17608
H 21.3944 42.656 7.07285
O 19.0695 3.04973 5.80019
H 19.2811 3.2805 6.74603
H 19.95 2.94408 5.41472
O 20.0674 6.7025 42.5724
H 19.1019 6.66888 42.6643
H 20.3765 6.07672 43.2395
O 23.3179 0.660645 5.59452
H 23.7631 0.561816 6.49444
H 23.9254 0.233804 4.9867
O 20.2885 3.78419 8.52645
H 20.5256 2.86177 8.79955
H 19.863 4.12755 9.3474
O 17.2467 4.64161 3.80512
H 16.3983 4.32566 4.0788
H 17.8815 4.18345 4.32102
O 18.0699 5.60978 1.32128
H 17.7461 6.50246 1.21946
H 17.8857 5.31139 2.22688
O 20.9658 8.45366 40.1205
H 20.7819 7.99087 40.9275
H 21.7591 8.87066 40.4375
O 24.9868 43.5379 4.06585
H 25.912 43.9585 4.03117
H 24.7813 43.1522 3.20698
O 24.8542 0.359595 7.94385
H 25.4167 1.12 8.13532
H 25.4612 43.6731 8.27477
O 22.9447 4.9765 7.04929
H 22.1466 4.99572 7.55611
H 22.7132 4.39048 6.34363
O 21.0347 1.03383 9.19096
H 20.4546 0.522164 9.73563
H 21.083 0.403784 8.40375
O 27.4559 0.847164 3.99154
H 28.1145 0.298309 3.47598
H 27.8205 1.20698 4.77681
O 27.8198 8.35688 0.992774
H 27.934 8.72998 1.91087
H 28.0386 8.99653 0.373418
O 28.1286 9.37771 43.5396
H 28.9626 9.06012 43.1657
H 27.82 9.97879 42.8712
O 30.2554 7.54095 7.27299
H 30.8015 7.66902 6.50803
H 29.6016 6.98058 6.9436
O 28.6647 2.10433 6.07373
H 29.6481 2.14473 6.15813
H 28.2574 2.18024 6.94561
O 28.2641 5.37777 6.03292
H 28.3733 4.44827 5.63451
H 27.9088 5.69455 5.22682
O 29.5855 41.5592 0.117112
H 28.7268 41.1051 -0.198652
H 30.1554 41.6342 44.5359
O 31.4954 2.34264 6.17392
H 31.763 3.13514 5.6831
H 32.3186 2.0438 6.56044
O 25.3039 4.81574 8.42098
H 24.4972 4.91249 7.86071
H 25.9299 5.48647 8.09984
O 24.1596 4.20452 0.337946
H 24.5984 3.59161 44.9613
H 24.7773 4.9797 0.318767
O 25.4583 6.70504 0.363704
H 25.0366 7.41491 45.016
H 26.1558 6.98031 0.918257
O 29.3176 43.871 2.15841
H 29.2498 0.27116 1.38356
H 29.6759 43.0834 1.77586
O 26.4267 40.3643 44.6609
H 25.9221 39.5167 44.5344
H 25.8095 40.9499 45.0696
O 36.444 33.5366 23.5769
H 35.5521 33.1828 23.8096
H 36.237 34.4911 23.6316
O 29.4085 9.99724 8.86735
H 29.5346 9.19051 8.29878
H 28.5074 10.0918 8.9879
O 26.6053 2.4496 8.88818
H 26.118 3.28134 8.66119
H 26.6843 2.11587 9.82145
    
    &END COORD
  &END SUBSYS
  &DFT
    BASIS_SET_FILE_NAME  BASIS_SET
    POTENTIAL_FILE_NAME  GTH_POTENTIALS
    &QS
      EPS_DEFAULT 1.0E-10
    &END QS
    &MGRID
      NGRIDS 4
      CUTOFF 135
      REL_CUTOFF 115
    &END MGRID
    &XC
      &XC_FUNCTIONAL PADE
      &END XC_FUNCTIONAL
    &END XC
    &SCF
      SCF_GUESS ATOMIC
      EPS_SCF 1.0E-7
      MAX_SCF 300
      &DIAGONALIZATION  ON
        ALGORITHM STANDARD
      &END DIAGONALIZATION
      &MIXING  T
        METHOD BROYDEN_MIXING
        ALPHA 0.4
        NBROYDEN 8
      &END MIXING
    &END SCF
  &END DFT
  &PRINT
    &FORCES ON
    &END FORCES
  &END PRINT
&END FORCE_EVAL
