&GLOBAL
  PROJECT H2O_bulk
  RUN_TYPE ENERGY_FORCE
  PRINT_LEVEL LOW
&END GLOBAL
&FORCE_EVAL
  METHOD Quickstep
  &SUBSYS
    &KIND H
      ELEMENT   H
      BASIS_SET DZVP-GTH-PBE
      POTENTIAL GTH-PBE-q1
    &END KIND
    &KIND O
      ELEMENT   O
      BASIS_SET DZVP-GTH-PBE
      POTENTIAL GTH-PBE-q6
    &END KIND
    &CELL
      A     46.937    0.000000000    0.000000000
      B     0.000000000    44.121    0.000000000
      C     0.000000000    0.000000000    45.182
    &END CELL
    &COORD

O 1.24849 2.54001 7.06195
H 0.740871 2.64233 7.81758
H 1.12742 3.46342 6.70604
O 4.8367 2.42607 43.716
H 4.20927 3.12499 43.4239
H 4.79137 1.73205 43.0147
O 5.96084 2.05716 1.23241
H 5.43416 1.44868 1.8036
H 5.56479 2.04924 0.381163
O 4.68607 4.78862 1.82084
H 5.51874 5.04892 2.23188
H 4.76531 3.80084 1.59914
O 0.971057 5.02875 5.59023
H 1.47559 5.30216 4.86804
H 0.388499 5.81779 5.81832
O 4.46762 6.64111 44.5815
H 4.56233 5.97945 0.165869
H 5.26623 7.15196 44.5802
O 3.39571 4.78003 42.8491
H 3.69144 5.5287 43.4463
H 2.48094 4.65594 42.8702
O 2.38273 5.78183 3.03988
H 3.12597 5.20528 2.88225
H 2.52558 6.40361 2.34526
O 4.25657 9.84197 44.3609
H 3.4226 9.48004 44.0054
H 4.12931 10.7686 44.3066
O 6.61192 8.23779 44.0037
H 7.53122 8.18934 44.2287
H 6.40987 9.1832 44.0761
O 13.9665 35.1336 28.5088
H 13.0679 35.287 28.7131
H 14.2229 35.9953 28.1447
O 1.14529 0.948619 4.5283
H 0.235239 0.764907 4.35384
H 1.06844 1.46006 5.36395
O 4.07133 0.434981 3.29831
H 3.81173 43.6689 3.05199
H 3.33119 0.717438 3.87022
O 15.6334 42.6827 6.50599
H 15.9144 42.3387 7.33314
H 16.0775 43.5541 6.31946
O 6.83821 5.55487 3.16154
H 6.81611 5.99393 3.98553
H 7.51015 4.89158 3.39007
O 46.4095 14.8934 45.4718
H 46.133 15.7307 45.7246
H 45.6549 14.6259 44.9303
O 13.8659 -0.237479 0.262454
H 13.632 43.0009 0.666447
H 14.5376 -0.46222 44.8037
O 10.2581 1.9402 42.4415
H 10.8368 1.71688 41.7037
H 9.4702 2.30208 42.0414
O 15.8143 5.59785 3.95333
H 15.4123 6.34348 4.4171
H 15.1594 4.8697 4.04019
O 13.1164 3.81533 4.73072
H 12.2029 4.10206 4.98708
H 13.0291 3.47437 3.85323
O 7.93557 1.63489 5.33402
H 7.18535 1.1726 4.9513
H 8.46035 0.937862 5.78388
O 9.13474 1.42938 1.92788
H 9.93862 1.33192 1.41499
H 8.38295 1.20643 1.32364
O 15.6702 41.3894 4.12584
H 15.5073 41.9799 4.83813
H 16.4629 40.9325 4.29482
O 13.8281 2.13781 6.71997
H 13.5295 2.60552 5.89717
H 13.4389 2.63564 7.40957
O 8.78365 3.49872 3.62052
H 8.5891 2.7943 4.21691
H 8.89022 2.99327 2.76414
O 13.1862 2.98186 1.82974
H 13.8235 2.26809 1.7832
H 12.4917 2.5748 1.38947
O 11.1909 1.20651 45.2017
H 10.8028 1.29394 44.2602
H 11.9418 0.595364 45.15
O 14.0209 41.2262 1.54598
H 13.3416 40.6638 1.89408
H 14.6652 41.2972 2.24073
O 16.6711 1.24775 6.10969
H 16.9981 1.61918 5.2677
H 15.7625 1.60152 6.27324
O 12.8403 43.5157 7.27083
H 13.5722 43.0115 6.97241
H 13.0929 0.322256 7.0619
O 10.6475 4.76555 5.28354
H 10.221 4.48171 6.0952
H 10.1387 4.35525 4.58721
O 9.70439 43.5884 6.92087
H 10.6809 43.4991 6.88098
H 9.45843 42.9151 7.55989
O 18.3152 2.12905 3.82955
H 18.6673 3.0321 3.70641
H 19.0206 1.54897 3.68186
O 17.7082 8.82539 45.5769
H 18.5079 8.86248 45.1258
H 17.814 8.12643 1.0632
O 24.3759 6.93969 3.1207
H 24.0577 6.78706 2.2411
H 25.2635 7.19168 2.86622
O 23.5229 5.96841 5.63869
H 23.6856 6.69758 5.09804
H 24.112 5.42824 5.19963
O 20.9575 0.660482 9.25536
H 20.6554 0.0541852 9.92591
H 21.8067 0.318419 8.91594
O 20.3445 6.16458 5.66219
H 20.0927 5.90801 6.5852
H 21.2908 6.0016 5.64802
O 16.7708 11.2945 0.741186
H 15.899 11.1219 0.42336
H 17.1383 10.4052 0.83544
O 23.3331 43.3971 8.27742
H 24.1704 43.4569 8.68326
H 23.5972 43.5034 7.37879
O 19.7217 5.31431 8.21174
H 19.3866 4.36175 8.29279
H 19.0216 5.80803 8.63252
O 18.5954 4.94164 3.9783
H 17.7011 5.15289 4.25434
H 19.3301 5.38097 4.48382
O 17.8025 6.5558 1.973
H 18.2685 6.03328 2.67789
H 16.9399 6.5714 2.33052
O 17.6125 13.7925 2.0148
H 17.7971 12.8502 1.90857
H 17.1414 13.891 1.17215
O 28.0354 42.8959 7.66549
H 28.1013 42.5093 6.80771
H 28.72 42.5132 8.1858
O 25.912 43.8862 8.99656
H 26.4718 0.532659 9.33183
H 26.5268 43.3727 8.4876
O 24.2844 5.44072 8.99632
H 23.4547 4.9612 8.85147
H 24.2434 6.06183 8.26903
O 18.8907 2.71033 8.25378
H 18.2984 2.30707 7.63508
H 19.5621 2.00684 8.53346
O 28.4365 41.8825 5.08638
H 28.0342 42.1756 4.24349
H 29.3064 41.6408 4.80815
O 23.3117 7.78506 42.2338
H 22.7309 7.94311 41.533
H 23.636 8.68702 42.485
O 24.2715 10.8203 42.7186
H 25.0299 11.3601 42.5531
H 23.5633 11.4503 42.6765
O 30.3914 7.67363 4.6492
H 30.9715 7.72949 5.40847
H 30.0461 6.82593 4.89001
O 30.3205 3.92548 7.74846
H 31.1889 3.54784 7.85373
H 29.6912 3.28032 8.04915
O 29.6185 5.14302 5.30771
H 29.8221 4.70312 6.11422
H 29.9589 4.68323 4.49963
O 25.3451 43.5139 0.470572
H 24.7297 42.9264 -0.0300606
H 25.1291 0.242912 0.302742
O 32.6572 2.12338 7.74928
H 33.2822 1.84588 7.09462
H 33.2101 2.15524 8.51761
O 26.6887 4.25434 10.2896
H 25.9343 4.4118 9.75278
H 27.2124 5.0816 10.2651
O 23.9367 6.1756 0.399562
H 23.3386 6.52119 -0.275368
H 24.4128 5.52109 45.0643
O 24.1249 5.0981 42.8857
H 24.4856 4.37643 42.4041
H 24.1805 5.9045 42.3533
O 26.7863 42.0441 2.71944
H 25.8748 41.7799 3.09535
H 26.5881 42.6678 2.00874
O 23.9711 40.9882 44.521
H 23.9161 40.6364 45.3892
H 24.8022 40.689 44.2163
O 29.5552 24.8334 36.338
H 30.2425 25.4402 36.1249
H 30.079 24.0404 36.4464
O 29.334 9.47533 2.93315
H 29.6519 8.98303 3.7355
H 30.1691 9.35675 2.39642
O 28.0569 1.84287 9.55975
H 27.5667 2.64449 9.73465
H 28.4756 1.53408 10.4222
    
    &END COORD
  &END SUBSYS
  &DFT
    BASIS_SET_FILE_NAME  BASIS_SET
    POTENTIAL_FILE_NAME  GTH_POTENTIALS
    &QS
      EPS_DEFAULT 1.0E-10
    &END QS
    &MGRID
      NGRIDS 4
      CUTOFF 135
      REL_CUTOFF 115
    &END MGRID
    &XC
      &XC_FUNCTIONAL PADE
      &END XC_FUNCTIONAL
    &END XC
    &SCF
      SCF_GUESS ATOMIC
      EPS_SCF 1.0E-7
      MAX_SCF 300
      &DIAGONALIZATION  ON
        ALGORITHM STANDARD
      &END DIAGONALIZATION
      &MIXING  T
        METHOD BROYDEN_MIXING
        ALPHA 0.4
        NBROYDEN 8
      &END MIXING
    &END SCF
  &END DFT
  &PRINT
    &FORCES ON
    &END FORCES
  &END PRINT
&END FORCE_EVAL
