&GLOBAL
  PROJECT H2O_bulk
  RUN_TYPE ENERGY_FORCE
  PRINT_LEVEL LOW
&END GLOBAL
&FORCE_EVAL
  METHOD Quickstep
  &SUBSYS
    &KIND H
      ELEMENT   H
      BASIS_SET DZVP-GTH-PBE
      POTENTIAL GTH-PBE-q1
    &END KIND
    &KIND O
      ELEMENT   O
      BASIS_SET DZVP-GTH-PBE
      POTENTIAL GTH-PBE-q6
    &END KIND
    &CELL
      A     46.937    0.000000000    0.000000000
      B     0.000000000    44.121    0.000000000
      C     0.000000000    0.000000000    45.182
    &END CELL
    &COORD

O 2.93941 3.39782 6.52002
H 2.98289 3.72675 7.38402
H 3.02193 4.18862 5.93621
O 4.40772 1.74828 43.8239
H 4.28408 2.28539 43.074
H 4.41419 0.872037 43.3997
O 6.05342 2.22155 0.71807
H 5.89456 1.56331 1.40794
H 5.44257 2.0483 -0.0242447
O 6.12815 5.02258 0.526692
H 6.67938 5.47135 1.18495
H 6.06093 4.08113 0.776063
O 3.05657 5.57599 4.91882
H 3.63589 5.59202 4.13866
H 2.18145 5.92137 4.59941
O 3.68978 5.97936 43.8459
H 4.42555 5.75962 44.3882
H 3.88836 6.82407 43.3724
O 2.87144 3.63307 42.143
H 3.1158 4.43575 42.6746
H 1.96025 3.59441 42.3754
O 4.67469 6.2663 2.88491
H 5.57322 6.12581 3.23811
H 4.71975 5.72556 2.00487
O 6.78789 8.58042 43.2019
H 7.14336 9.4246 42.8252
H 7.31855 8.40967 44.016
O 4.21125 8.12746 42.1039
H 5.03431 8.44829 42.4347
H 3.59112 8.79747 42.266
O 5.00756 42.5325 24.1823
H 4.22961 41.9411 24.2445
H 4.59502 43.3533 24.1279
O 4.23574 0.970341 5.88221
H 3.45048 0.447582 5.82676
H 3.77669 1.77842 6.15541
O 5.49587 0.682646 3.34265
H 6.15904 0.0892521 3.60978
H 5.1209 1.00699 4.1739
O 18.2657 42.3903 2.92717
H 18.3702 41.8008 3.69976
H 17.9639 43.18 3.39178
O 7.70649 6.07141 3.01608
H 8.15534 6.84541 2.70797
H 8.41073 5.41585 3.16079
O 2.2107 7.17142 10.7541
H 2.94793 7.5158 10.3613
H 1.5674 7.56704 10.2976
O 11.3103 42.3981 2.15813
H 12.1487 41.8964 2.11466
H 10.6282 41.7215 2.28668
O 10.7101 0.193585 42.7849
H 10.0002 0.691704 42.4205
H 11.3731 0.270412 42.0963
O 15.3311 6.62667 3.67007
H 14.371 6.82422 3.7216
H 15.3413 5.68767 3.46508
O 14.0216 2.95693 3.67099
H 13.2663 3.49914 3.96852
H 13.6758 2.50643 2.87149
O 9.29922 2.82767 6.02007
H 8.46933 2.87963 6.53906
H 9.62445 1.95073 6.22076
O 8.63862 1.77609 2.10318
H 9.31222 1.21979 1.67727
H 7.94919 1.82526 1.42597
O 16.4206 41.7878 1.03458
H 17.0441 41.9578 1.80181
H 16.9365 41.4594 0.306176
O 14.8146 0.984183 5.31584
H 14.3823 1.62212 4.70474
H 15.2386 1.53974 5.96735
O 9.22878 3.8978 3.70423
H 9.06966 3.45947 4.53648
H 9.178 3.23713 2.96544
O 13.0121 2.13334 1.28971
H 12.9381 3.05631 0.951423
H 12.1557 1.68151 1.2898
O 10.8365 0.531572 0.717912
H 10.6264 0.409074 44.9756
H 10.9951 43.7777 0.99395
O 13.8905 40.803 1.94428
H 14.0193 39.8978 1.66961
H 14.6346 41.2565 1.49425
O 17.6064 0.558844 4.44277
H 17.7032 1.36872 3.91537
H 16.6412 0.50906 4.51621
O 12.6037 42.7465 5.6774
H 12.1868 42.4322 4.88056
H 13.4492 43.0506 5.41308
O 11.921 4.38971 4.45317
H 11.7427 4.3892 5.37147
H 11.0225 4.26655 4.06725
O 10.6329 44.5041 7.06679
H 11.3086 43.9641 6.65738
H 10.1868 43.9308 7.71349
O 18.3113 3.11764 3.17432
H 18.5013 3.92138 3.64931
H 18.3421 3.40551 2.31413
O 17.3733 11.3258 3.02158
H 18.2272 10.906 3.15915
H 16.9547 10.5513 2.58894
O 21.9749 5.55452 3.64034
H 22.4262 5.74195 2.79851
H 21.2941 4.99643 3.23457
O 21.5191 7.57506 5.29037
H 20.9965 8.29085 5.02345
H 21.5617 6.90801 4.62281
O 21.0501 43.5339 9.13003
H 21.0141 42.696 8.62171
H 22.0104 43.6847 9.26646
O 19.2077 6.44929 7.14656
H 19.3905 5.64398 7.61192
H 20.0331 6.89288 7.05067
O 16.414 13.999 2.41471
H 16.7298 13.1602 2.68337
H 16.1281 13.9615 1.50221
O 23.5571 44.1981 10.1595
H 24.3639 0.197431 9.62412
H 23.8276 -0.519575 10.8653
O 20.0901 4.3881 8.56242
H 20.3749 3.54202 8.12873
H 19.7411 4.13517 9.43206
O 18.2907 5.62807 4.54856
H 17.3769 5.9727 4.58751
H 18.6406 5.69457 5.44151
O 17.8506 8.5305 2.42712
H 18.6171 7.98718 2.21882
H 17.3241 7.90109 2.88982
O 14.8674 15.6223 4.03733
H 15.206 14.8889 3.51147
H 13.9402 15.4401 4.03119
O 26.199 42.3403 7.75253
H 26.8603 42.0937 7.15954
H 26.1277 41.4517 8.17376
O 26.1135 0.428128 9.24957
H 26.4353 1.13714 8.74826
H 26.2977 43.7465 8.75916
O 23.7186 7.54985 7.13792
H 24.1421 8.40199 7.20405
H 22.9214 7.59635 6.65133
O 20.5644 1.7192 7.66512
H 20.2378 1.44195 6.81625
H 20.6706 0.877506 8.17265
O 27.8949 40.9945 6.14069
H 27.6106 41.0393 5.23738
H 28.816 40.8357 6.06724
O 22.0871 7.36474 41.6007
H 21.9992 6.91375 40.7408
H 22.1414 8.23985 41.2734
O 22.191 10.4352 40.4661
H 23.0996 10.7694 40.291
H 21.8138 11.1542 41.0251
O 32.85 6.12041 3.31225
H 32.1206 6.19151 3.97364
H 33.0364 5.17919 3.27804
O 30.0016 3.70589 6.93486
H 30.5259 3.21528 7.5915
H 29.0654 3.41469 6.97296
O 30.9052 5.62997 5.18937
H 30.7681 4.87713 5.86361
H 30.255 6.30729 5.44654
O 25.7897 41.6293 0.378152
H 26.1439 41.1742 44.7495
H 25.7753 42.4735 0.102791
O 31.6628 2.75853 9.20757
H 31.8735 1.84674 9.40283
H 31.36 3.01664 10.0887
O 25.5758 5.38734 6.90467
H 24.8744 6.07082 7.04569
H 25.7276 5.45954 5.97968
O 22.5465 5.20418 1.1421
H 23.2333 4.49273 0.94416
H 22.678 5.76491 0.37545
O 23.5284 6.24783 43.9145
H 24.2718 6.88497 43.8416
H 22.8839 6.48242 43.2314
O 27.7603 40.6209 3.21381
H 27.1496 40.778 2.48006
H 28.0207 39.6844 2.9322
O 25.1069 0.114852 0.493633
H 24.2364 0.551297 45.4486
H 24.771 -0.627965 0.951424
O 26.2131 20.5574 42.6283
H 26.8657 19.8885 42.6735
H 25.448 20.1058 42.8455
O 33.7391 8.70154 2.23446
H 33.788 7.95397 2.80572
H 34.3339 9.33773 2.62519
O 26.911 3.20668 8.26194
H 26.3967 3.79521 7.64771
H 26.7571 3.69388 9.06273
    
    &END COORD
  &END SUBSYS
  &DFT
    BASIS_SET_FILE_NAME  BASIS_SET
    POTENTIAL_FILE_NAME  GTH_POTENTIALS
    &QS
      EPS_DEFAULT 1.0E-10
    &END QS
    &MGRID
      NGRIDS 4
      CUTOFF 135
      REL_CUTOFF 115
    &END MGRID
    &XC
      &XC_FUNCTIONAL PADE
      &END XC_FUNCTIONAL
    &END XC
    &SCF
      SCF_GUESS ATOMIC
      EPS_SCF 1.0E-7
      MAX_SCF 300
      &DIAGONALIZATION  ON
        ALGORITHM STANDARD
      &END DIAGONALIZATION
      &MIXING  T
        METHOD BROYDEN_MIXING
        ALPHA 0.4
        NBROYDEN 8
      &END MIXING
    &END SCF
  &END DFT
  &PRINT
    &FORCES ON
    &END FORCES
  &END PRINT
&END FORCE_EVAL
