&GLOBAL
  PROJECT H2O_bulk
  RUN_TYPE ENERGY_FORCE
  PRINT_LEVEL LOW
&END GLOBAL
&FORCE_EVAL
  METHOD Quickstep
  &SUBSYS
    &KIND H
      ELEMENT   H
      BASIS_SET DZVP-GTH-PBE
      POTENTIAL GTH-PBE-q1
    &END KIND
    &KIND O
      ELEMENT   O
      BASIS_SET DZVP-GTH-PBE
      POTENTIAL GTH-PBE-q6
    &END KIND
    &CELL
      A     46.937    0.000000000    0.000000000
      B     0.000000000    44.121    0.000000000
      C     0.000000000    0.000000000    45.182
    &END CELL
    &COORD

O 1.07193 1.60196 3.32373
H 0.175141 1.28092 3.49072
H 1.58866 1.18289 4.01084
O 5.68794 4.48219 1.04492
H 4.92017 4.89452 0.666812
H 5.45932 3.55312 1.02207
O 6.47981 5.52062 3.51019
H 7.37005 5.21819 3.50468
H 6.17685 5.19469 2.688
O 5.28164 4.53648 5.58295
H 5.79387 4.84483 6.35237
H 5.71597 4.93893 4.77867
O 2.7207 0.506405 5.39558
H 3.5152 1.16361 5.47168
H 3.15478 43.7971 5.19693
O 2.57202 5.71413 5.75347
H 3.43667 5.33311 5.69902
H 2.1147 5.3501 4.98666
O 5.30578 1.58113 0.847143
H 4.36323 1.30736 1.00464
H 5.46721 1.2342 -0.0354095
O 4.99689 2.01641 5.47414
H 5.07259 3.0102 5.50245
H 5.43709 1.75239 6.33942
O 1.18946 5.06081 8.18101
H 1.6601 5.17621 7.36159
H 1.19008 4.08706 8.26239
O 1.17493 4.68587 3.51037
H 1.46761 4.99355 2.65418
H 1.16189 3.73022 3.42089
O 2.35149 5.89074 0.686721
H 2.52178 6.80167 0.918655
H 1.78529 5.97146 -0.0991503
O 2.66186 0.825851 0.919146
H 2.53756 -0.099293 0.74305
H 2.04289 0.98883 1.64467
O 6.72306 0.765227 3.30082
H 6.29026 1.01512 2.48284
H 6.15321 1.16692 3.98417
O 6.49958 0.514301 8.34601
H 6.15647 0.594339 9.24523
H 6.5787 43.6872 8.19063
O 6.45636 5.45869 7.77358
H 7.45892 5.3104 7.90704
H 6.36912 6.4396 7.77413
O 1.18797 1.5373 8.27274
H 0.384578 0.926703 8.16998
H 1.75248 1.22411 7.5423
O 9.18057 1.84887 3.29832
H 8.22519 1.44975 3.29338
H 9.6063 1.46609 2.50863
O 13.3241 4.69071 0.833612
H 14.0052 5.08539 0.294325
H 13.5691 4.98859 1.71914
O 14.3409 5.62548 3.36204
H 14.2055 6.57984 3.41024
H 13.8868 5.24548 4.21916
O 13.0183 4.6615 5.51017
H 13.384 4.92451 6.34325
H 12.1368 5.05862 5.50486
O 10.4475 0.786738 5.40909
H 9.95867 1.17024 4.66182
H 9.96021 1.04931 6.20076
O 10.5028 5.64535 5.38282
H 10.076 5.18399 4.6931
H 10.4773 6.56194 5.11908
O 12.8951 1.39835 1.02661
H 13.0391 2.33381 0.864493
H 13.4932 1.16838 1.83216
O 13.0133 1.56504 5.51505
H 12.0205 1.3091 5.45863
H 13.0121 2.5235 5.40608
O 9.12729 4.82538 8.07773
H 9.17894 3.83592 8.12825
H 9.67553 5.03579 7.29205
O 9.2807 4.39618 3.45106
H 9.25481 3.40844 3.42279
H 9.59046 4.66814 2.59838
O 10.2165 5.53405 1.13752
H 9.62068 5.69701 0.381284
H 11.0456 5.25133 0.754327
O 10.3293 0.912684 1.19728
H 10.1778 44.1219 0.949033
H 11.2386 1.03027 1.12586
O 14.3076 0.704687 3.15132
H 15.1607 1.12014 3.22664
H 13.8895 0.964936 3.97926
O 14.0465 0.547671 8.20661
H 14.9748 0.788286 8.15206
H 13.7236 0.788318 7.31618
O 14.0044 5.68414 8.1659
H 13.8997 6.64358 8.29691
H 13.3933 5.27889 8.81414
O 9.28206 1.67321 8.18928
H 9.83025 1.35098 8.90368
H 8.38089 1.32522 8.34139
O 16.8264 1.92604 3.42395
H 16.939 2.87129 3.3908
H 17.3837 1.61789 4.17886
O 20.9428 4.5089 0.802028
H 21.3562 4.90751 1.551
H 20.0524 4.8401 0.869835
O 22.3567 5.64968 3.39957
H 23.2387 5.13997 3.3595
H 22.6361 6.56126 3.46128
O 20.8895 4.5026 5.73586
H 21.3919 4.72641 4.94753
H 20.8888 3.51561 5.75817
O 18.3968 0.710299 5.7495
H 19.3232 1.05725 5.69623
H 18.4659 43.8765 5.76223
O 18.1675 5.55487 5.48691
H 17.7894 5.2378 6.33426
H 19.069 5.27625 5.56961
O 20.8816 1.69781 0.763277
H 21.342 1.41475 1.55086
H 20.9322 2.64507 0.826991
O 20.8169 1.71238 5.68396
H 21.3434 1.41639 6.52259
H 21.3492 1.32462 4.95311
O 17.3835 4.68383 7.85486
H 17.3487 3.72478 7.90416
H 16.5501 4.95146 8.24146
O 17.0912 4.5853 3.268
H 16.178 4.93923 3.39535
H 17.5253 4.95304 4.08639
O 18.2441 5.53451 0.993603
H 17.9834 6.43837 0.879583
H 17.79 5.23865 1.7852
O 18.2574 0.486696 0.699299
H 19.1155 0.940083 0.740325
H 17.768 0.929467 1.40173
O 22.3744 0.746234 3.66036
H 23.2403 1.22231 3.51109
H 22.6229 43.94 3.74724
O 22.1631 0.867396 7.82097
H 23.0761 1.09232 8.0172
H 21.9003 0.216483 8.49386
O 22.2994 5.49982 7.99393
H 21.9932 6.33309 8.32075
H 21.7215 5.26876 7.29277
O 17.298 1.77736 8.09271
H 17.7492 1.37412 8.84134
H 17.6787 1.3838 7.32509
O 24.665 1.91215 3.3095
H 25.1948 1.52295 2.59433
H 25.1131 1.55639 4.04338
O 28.8824 4.74666 0.827891
H 29.3462 5.00738 0.0380106
H 28.9252 3.82363 0.817687
O 30.1624 5.44023 3.44
H 29.7142 5.34555 2.59817
H 30.1073 6.35714 3.61308
O 28.6549 4.56915 5.4947
H 29.0425 4.83227 4.64671
H 27.7556 4.93424 5.5269
O 25.8114 0.814027 5.44521
H 26.7261 1.07585 5.55612
H 25.4529 1.09426 6.26977
O 26.0526 5.63523 5.45687
H 25.5311 5.20774 4.62451
H 25.9623 6.59918 5.3413
O 28.8208 1.63987 0.773906
H 29.3437 1.2895 1.49207
H 29.239 1.28666 -0.0155102
O 28.5311 1.86614 5.64748
H 28.6209 2.88351 5.58386
H 29.2066 1.55222 5.02663
O 24.7352 4.48277 8.03468
H 23.8584 4.85421 7.9496
H 25.2191 4.78505 7.24392
O 24.727 4.44735 3.39177
H 24.6928 3.43943 3.35354
H 25.1741 4.71765 2.50967
O 25.8506 5.49722 1.15981
H 25.4896 6.27708 0.721519
H 26.7713 5.45379 0.892965
O 25.854 0.768154 1.18744
H 25.3473 45.3142 0.506501
H 26.7719 1.02866 0.990675
O 30.3262 0.492606 3.28317
H 30.0627 43.7029 3.48099
H 31.2823 0.430371 3.15592
O 30.2488 0.608115 8.26494
H 29.6503 0.900013 7.53948
H 29.9665 1.20059 9.01794
O 30.2696 5.51117 8.27555
H 29.7894 5.16596 7.51924
H 30.1347 6.51941 8.19818
O 24.7682 1.74584 8.09926
H 24.8009 2.853 8.07508
H 25.2836 1.52622 8.88748
    
    &END COORD
  &END SUBSYS
  &DFT
    BASIS_SET_FILE_NAME  BASIS_SET
    POTENTIAL_FILE_NAME  GTH_POTENTIALS
    &QS
      EPS_DEFAULT 1.0E-10
    &END QS
    &MGRID
      NGRIDS 4
      CUTOFF 135
      REL_CUTOFF 115
    &END MGRID
    &XC
      &XC_FUNCTIONAL PADE
      &END XC_FUNCTIONAL
    &END XC
    &SCF
      SCF_GUESS ATOMIC
      EPS_SCF 1.0E-7
      MAX_SCF 300
      &DIAGONALIZATION  ON
        ALGORITHM STANDARD
      &END DIAGONALIZATION
      &MIXING  T
        METHOD BROYDEN_MIXING
        ALPHA 0.4
        NBROYDEN 8
      &END MIXING
    &END SCF
  &END DFT
  &PRINT
    &FORCES ON
    &END FORCES
  &END PRINT
&END FORCE_EVAL
