&GLOBAL
  PROJECT H2O_bulk
  RUN_TYPE ENERGY_FORCE
  PRINT_LEVEL LOW
&END GLOBAL
&FORCE_EVAL
  METHOD Quickstep
  &SUBSYS
    &KIND H
      ELEMENT   H
      BASIS_SET DZVP-GTH-PBE
      POTENTIAL GTH-PBE-q1
    &END KIND
    &KIND O
      ELEMENT   O
      BASIS_SET DZVP-GTH-PBE
      POTENTIAL GTH-PBE-q6
    &END KIND
    &CELL
      A     46.937    0.000000000    0.000000000
      B     0.000000000    44.121    0.000000000
      C     0.000000000    0.000000000    45.182
    &END CELL
    &COORD

O 1.28056 43.6859 0.691758
H 1.27311 42.7676 0.731733
H 1.28123 44.0921 1.56579
O 5.07937 4.74421 0.170964
H 4.91107 4.94836 44.4498
H 5.02989 3.75296 0.236791
O 6.08733 5.4406 2.76092
H 6.98792 5.05933 2.6996
H 5.70122 5.52956 1.84116
O 4.30192 4.62629 4.79126
H 4.7236 4.45847 5.69795
H 4.99637 4.98359 4.18214
O 0.960928 0.944919 3.06519
H 1.78441 1.16121 3.56053
H 0.534304 1.73431 2.8927
O 1.72982 7.09106 5.90689
H 2.41165 6.62013 5.41098
H 0.902969 6.69367 5.6072
O 4.96129 1.32257 0.081528
H 3.98655 1.3861 45.0075
H 5.35814 1.09411 44.4702
O 3.69215 1.90057 4.16608
H 3.86717 2.87829 4.24363
H 3.74024 1.40626 5.0172
O 0.976157 9.74418 5.99483
H 1.26298 8.82596 5.91833
H 1.51487 10.1693 6.6653
O 45.9599 6.16739 5.14284
H 45.3946 6.00952 5.89903
H 45.3787 6.46378 4.44872
O 42.239 12.099 42.103
H 42.9584 11.521 41.9227
H 41.5228 11.4332 42.138
O 2.42028 1.32553 44.136
H 1.78439 2.04421 44.0734
H 2.00238 0.640518 44.6954
O 5.68102 0.38895 2.80302
H 5.5888 0.473184 1.767
H 5.04131 0.990607 3.22955
O 12.1609 43.2345 12.4157
H 11.6441 43.2043 11.6375
H 11.4982 43.2477 13.1034
O 5.43309 3.8295 7.53175
H 6.40201 4.03231 7.46631
H 4.98321 4.51674 8.05451
O 44.5835 40.2424 14.7958
H 45.3677 40.3415 15.4204
H 44.1198 39.4277 15.229
O 8.26266 1.44714 3.75937
H 7.51023 0.974989 3.41892
H 9.00526 0.925073 3.40672
O 11.8484 6.18454 44.2837
H 12.6832 5.72773 43.9991
H 11.9654 7.11501 43.9995
O 14.4174 8.52175 6.23186
H 14.5041 9.47946 6.29304
H 13.4451 8.28473 6.19207
O 11.6358 8.00521 6.3019
H 11.2939 7.63516 7.13332
H 11.109 7.64681 5.67093
O 9.53622 1.85481 6.66652
H 9.30086 1.68039 5.74515
H 8.98989 1.19101 7.12741
O 9.02864 6.35507 4.86251
H 9.13268 5.67869 4.1489
H 8.24035 6.81364 4.50888
O 13.0104 43.2853 3.04334
H 13.648 42.9101 2.44198
H 13.5622 43.753 3.68995
O 12.4262 1.44415 7.30999
H 11.5478 1.45101 6.99822
H 12.5713 2.26821 7.7572
O 8.18073 4.46213 6.97499
H 8.6929 3.672 6.95375
H 8.25767 4.91391 6.12955
O 8.47125 4.06705 2.81548
H 8.48528 3.16425 3.13001
H 8.96815 4.15274 2.06337
O 10.2725 4.74442 0.956334
H 9.89907 4.78534 0.0583857
H 11.0011 5.39363 0.94156
O 10.1041 43.937 2.22898
H 9.77569 43.0821 1.96851
H 11.0364 43.7205 2.48042
O 14.2795 0.293389 5.3293
H 15.0634 0.81494 5.37209
H 13.6532 0.733793 5.95639
O 11.6384 42.3691 8.93777
H 11.7685 41.426 9.00178
H 12.3446 42.6973 8.40822
O 9.62477 7.07683 7.84497
H 9.11745 7.33179 8.59484
H 9.268 6.22611 7.65046
O 8.74925 43.7067 8.0345
H 9.66148 43.4724 8.20457
H 8.27989 43.6213 8.89361
O 16.7505 1.85704 5.9019
H 16.9825 2.78128 6.07889
H 17.63 1.48346 5.61732
O 19.9456 3.40158 0.641419
H 20.6587 3.58692 1.21555
H 19.131 3.65871 1.0575
O 22.2817 4.41654 2.22638
H 23.2432 4.39525 2.41765
H 22.3416 5.32581 1.9894
O 21.0419 4.05772 4.85
H 21.1635 4.34979 3.90187
H 21.3806 3.18757 4.90077
O 19.3068 0.509879 5.53238
H 20.2438 0.720736 5.21684
H 19.1363 43.6995 5.33249
O 18.1468 4.72612 5.84945
H 18.5847 4.83433 6.74212
H 18.8283 4.52659 5.23165
O 19.9381 2.5196 43.1395
H 19.5587 3.18324 42.5971
H 20.1472 2.93126 43.9987
O 21.893 1.05747 4.89036
H 22.3715 0.941384 5.73279
H 22.553 0.882723 4.17256
O 20.1724 4.50984 8.20957
H 20.1919 3.48658 8.14792
H 19.7777 4.7496 9.04483
O 16.8819 6.83585 4.42817
H 16.2367 7.31268 4.89499
H 17.2549 6.24057 5.08476
O 17.3436 4.76391 2.2484
H 16.483 4.48389 1.93202
H 17.1703 5.37472 2.9789
O 21.078 0.430689 41.6771
H 20.7423 1.21919 42.2007
H 21.8808 0.04093 42.0247
O 24.013 0.564044 3.03134
H 24.9524 0.868203 3.21318
H 23.7432 0.921331 2.17615
O 23.0266 0.572972 7.61917
H 23.6085 1.23747 7.75313
H 23.4442 43.8775 7.9043
O 22.4878 5.41456 7.06064
H 21.7195 5.20182 7.58616
H 22.2127 5.38527 6.16085
O 20.1018 1.78323 8.21556
H 20.967 1.32972 8.43583
H 19.749 1.28737 7.43931
O 26.9509 1.41159 3.09106
H 27.5276 0.946538 2.5238
H 27.1942 1.53989 4.02011
O 29.2604 6.8364 44.5411
H 29.0183 7.64176 44.0223
H 29.8644 6.39946 43.9534
O 30.2331 8.16188 2.43237
H 30.0023 7.69709 1.63954
H 30.2402 7.43252 3.04418
O 29.3709 7.88853 7.65418
H 28.9596 8.64083 7.265
H 28.8772 7.15385 7.24071
O 27.5538 2.04783 6.30442
H 28.4418 1.72482 6.60153
H 26.9329 1.94388 7.00956
O 27.376 5.4975 5.94202
H 27.8025 4.57131 6.08243
H 27.1915 5.57744 5.03791
O 30.1917 41.8679 0.325213
H 30.2451 42.0141 44.5929
H 30.6792 41.0076 0.323436
O 30.2577 1.44859 7.49611
H 31.0504 1.97074 7.53607
H 30.6374 0.559952 7.38233
O 25.0911 5.22666 7.9202
H 24.2113 5.36885 7.50846
H 25.7017 5.49288 7.22102
O 25.0925 4.52758 2.68894
H 25.6092 3.7966 3.07689
H 25.6207 4.90797 1.91181
O 26.3687 5.6238 0.374346
H 25.9193 5.33308 44.7727
H 27.2266 5.92999 0.0407338
O 28.7214 0.225658 1.3222
H 28.3892 43.5631 0.84845
H 29.4535 43.9676 1.78667
O 32.5512 40.9236 43.2917
H 32.7952 41.3415 42.4011
H 33.395 40.6623 43.6242
O 33.2144 40.2429 14.58
H 33.9785 40.4599 14.1071
H 32.8445 39.6184 14.008
O 32.0667 7.06895 9.61557
H 31.423 7.33424 8.99774
H 32.0411 7.80987 10.226
O 25.389 2.60419 8.50039
H 25.375 3.50763 8.26515
H 25.5181 2.82941 9.47409
    
    &END COORD
  &END SUBSYS
  &DFT
    BASIS_SET_FILE_NAME  BASIS_SET
    POTENTIAL_FILE_NAME  GTH_POTENTIALS
    &QS
      EPS_DEFAULT 1.0E-10
    &END QS
    &MGRID
      NGRIDS 4
      CUTOFF 135
      REL_CUTOFF 115
    &END MGRID
    &XC
      &XC_FUNCTIONAL PADE
      &END XC_FUNCTIONAL
    &END XC
    &SCF
      SCF_GUESS ATOMIC
      EPS_SCF 1.0E-7
      MAX_SCF 300
      &DIAGONALIZATION  ON
        ALGORITHM STANDARD
      &END DIAGONALIZATION
      &MIXING  T
        METHOD BROYDEN_MIXING
        ALPHA 0.4
        NBROYDEN 8
      &END MIXING
    &END SCF
  &END DFT
  &PRINT
    &FORCES ON
    &END FORCES
  &END PRINT
&END FORCE_EVAL
