&GLOBAL
  PROJECT H2O_bulk
  RUN_TYPE ENERGY_FORCE
  PRINT_LEVEL LOW
&END GLOBAL
&FORCE_EVAL
  METHOD Quickstep
  &SUBSYS
    &KIND H
      ELEMENT   H
      BASIS_SET DZVP-GTH-PBE
      POTENTIAL GTH-PBE-q1
    &END KIND
    &KIND O
      ELEMENT   O
      BASIS_SET DZVP-GTH-PBE
      POTENTIAL GTH-PBE-q6
    &END KIND
    &CELL
      A     46.937    0.000000000    0.000000000
      B     0.000000000    44.121    0.000000000
      C     0.000000000    0.000000000    45.182
    &END CELL
    &COORD

O 1.511 0.518894 0.120527
H 0.801276 44.1359 -0.411276
H 1.05062 0.722167 0.994754
O 4.44724 5.30246 0.120637
H 4.54526 6.1469 -0.386314
H 4.47231 4.62768 44.6283
O 5.171 4.53858 2.99263
H 5.51062 3.65037 2.79791
H 5.08553 4.86842 2.131
O 3.00249 4.77172 4.58604
H 3.5174 4.66786 5.53179
H 3.7155 4.70857 3.87128
O 46.9056 1.15402 2.42334
H 0.30827 1.5084 3.30271
H 45.9643 1.45518 2.34247
O 1.32681 7.33011 4.14519
H 1.71603 6.47561 4.33655
H 0.653369 7.48985 4.78257
O 5.45291 2.53117 44.5355
H 4.92721 1.70598 44.5502
H 6.02371 2.55203 43.7215
O 0.739625 2.62431 4.66537
H 1.59429 3.17451 4.52515
H 0.624472 2.24337 5.52065
O 3.26921 9.1382 3.38946
H 2.55429 8.62435 3.76294
H 3.7044 9.61009 4.07236
O 46.199 6.82725 6.46866
H 46.1705 6.06613 7.0687
H 45.5972 7.43099 6.92608
O 37.836 15.5871 39.9534
H 36.9752 15.8484 40.1665
H 38.3123 16.4414 40.0367
O 4.26987 0.291073 44.8968
H 4.42941 43.6346 44.3643
H 3.29397 0.401409 44.9993
O 6.1044 1.90944 2.18782
H 6.10398 2.09796 1.26672
H 5.44354 1.24137 2.31665
O 13.8956 42.5223 9.99874
H 14.7495 42.3571 10.3714
H 14.124 42.5774 9.06916
O 4.47372 4.34756 6.7997
H 5.35515 4.61998 6.50659
H 4.32867 4.58989 7.71973
O 42.3905 36.7641 18.9996
H 42.8729 37.3007 19.5902
H 41.4849 37.2029 19.0734
O 9.39312 1.32906 3.46502
H 8.66194 0.919371 2.9228
H 10.0558 0.604763 3.56414
O 10.3244 6.85884 43.4516
H 11.1814 7.36014 43.5586
H 9.72168 7.58576 43.7379
O 14.2397 6.32031 5.14421
H 13.9901 7.25473 5.18967
H 13.449 5.91907 5.45336
O 11.5998 6.86974 5.65443
H 11.0938 6.67205 6.46832
H 10.8845 6.80612 4.967
O 8.3249 1.99349 6.92528
H 8.54657 1.67274 6.02896
H 8.29256 1.21072 7.52545
O 7.84743 5.01556 4.05618
H 8.53477 4.70438 3.41176
H 6.9782 4.95742 3.61517
O 13.411 43.3679 5.7871
H 13.5649 42.6389 6.38074
H 13.7978 44.1603 6.1785
O 11.1465 2.74538 8.11034
H 10.3322 2.52265 7.68681
H 11.1568 3.69599 8.03577
O 7.36411 4.61109 6.64358
H 7.46023 3.6436 6.71398
H 7.52939 4.74667 5.67772
O 9.90115 3.97387 2.62802
H 9.76879 3.04962 2.77099
H 10.0501 4.10156 1.66465
O 10.3203 4.16406 44.5671
H 11.1822 3.81879 44.2793
H 10.3609 4.97794 44.0452
O 11.3822 43.4767 3.9559
H 12.0476 43.2238 3.32067
H 11.8663 43.536 4.72882
O 14.5472 1.24129 7.44228
H 15.4418 1.15073 7.12824
H 14.1652 2.10418 7.26088
O 11.6434 44.6174 9.62346
H 12.5337 44.3878 9.86924
H 11.6834 1.35461 9.16813
O 9.94289 5.54098 8.14279
H 9.68478 5.5429 9.0839
H 9.16595 5.13998 7.67893
O 9.16656 43.8236 8.46126
H 10.0522 43.871 8.8614
H 9.00115 42.9286 8.22343
O 17.0641 1.32346 6.42861
H 17.7083 2.03915 6.30357
H 17.6141 0.523679 6.43995
O 19.6433 5.24485 0.678253
H 20.4467 4.9569 1.12642
H 18.8631 4.91192 1.13367
O 22.2847 4.73634 1.81246
H 22.9449 4.25732 1.24432
H 22.5702 5.63241 1.80835
O 21.4959 3.73232 4.69559
H 21.6803 4.13938 3.84279
H 21.9838 2.91678 4.72115
O 20.6016 43.5784 6.42733
H 21.2796 -0.131097 5.88802
H 20.8322 42.6524 6.31847
O 18.8358 3.49966 6.30428
H 19.374 3.57503 7.09203
H 19.5073 3.53816 5.66393
O 19.359 4.01094 43.4939
H 18.4263 4.15949 43.364
H 19.5855 4.48191 44.3316
O 22.7036 1.11654 4.99829
H 23.2043 0.961129 5.76474
H 23.1816 0.681882 4.27449
O 20.2683 3.41554 8.70624
H 20.3788 2.47747 8.82519
H 19.5162 3.60938 9.27787
O 16.7624 5.24895 4.57925
H 15.914 5.56858 4.85237
H 17.1424 4.89881 5.37053
O 17.3845 4.35956 1.88424
H 16.6914 4.93114 1.5571
H 17.3822 4.49336 2.83934
O 21.6113 4.19741 41.8075
H 20.7937 4.18647 42.3371
H 21.8247 3.33625 41.5001
O 24.6926 -0.233466 3.26409
H 25.6432 0.0864153 3.32754
H 24.746 43.4981 2.37422
O 24.2104 0.585931 7.21243
H 24.8744 1.15694 7.01495
H 24.5681 43.9345 7.72134
O 22.6758 5.24916 6.70993
H 22.2816 4.84715 7.45709
H 22.3099 4.82401 5.84094
O 20.7104 0.680205 8.87615
H 21.5318 0.309415 9.3643
H 20.579 0.203296 8.04475
O 27.6268 1.1483 3.19878
H 28.4151 0.524211 2.92663
H 27.9869 1.76752 3.87774
O 28.1367 7.70519 0.417522
H 27.6569 8.52277 45.507
H 28.9998 8.03321 0.498496
O 30.4714 9.62011 0.920611
H 30.2665 10.563 1.08198
H 31.4147 9.50809 1.24293
O 28.9194 7.38496 8.17184
H 28.3783 7.17395 8.94445
H 28.6916 6.71961 7.48916
O 28.6526 3.07177 5.87152
H 29.4563 2.66195 6.22052
H 27.8548 2.8169 6.45055
O 28.169 5.74725 6.22734
H 28.3963 4.77228 6.21601
H 28.6201 6.13055 5.39072
O 30.3145 41.4753 0.671881
H 31.141 41.9978 0.604114
H 29.9665 41.2381 44.9834
O 30.2663 1.54618 7.5265
H 30.8433 1.70506 8.31001
H 30.5089 0.670051 7.22713
O 25.367 5.2459 6.77263
H 24.4452 5.48297 6.66033
H 25.9604 5.68563 6.1626
O 24.7428 3.72234 0.449661
H 25.0556 2.89984 0.760892
H 25.4327 4.33202 0.0179622
O 27.0227 5.33764 44.5842
H 27.8387 4.80744 44.6022
H 27.2806 6.1256 -0.0818448
O 29.8346 43.695 2.41881
H 30.5 44.1559 1.96605
H 29.7205 42.9099 1.89947
O 29.8935 40.6983 43.2905
H 30.2338 41.2892 42.5931
H 29.1654 40.3089 42.879
O 35.161 37.3143 18.5204
H 36.052 36.9253 18.6254
H 34.6076 36.4907 18.6174
O 31.3171 8.36967 9.10812
H 30.7533 7.78058 8.61214
H 32.2271 8.03187 9.03112
O 26.2695 2.76811 7.47468
H 25.8228 3.5085 7.19287
H 26.4265 3.01343 8.35522
    
    &END COORD
  &END SUBSYS
  &DFT
    BASIS_SET_FILE_NAME  BASIS_SET
    POTENTIAL_FILE_NAME  GTH_POTENTIALS
    &QS
      EPS_DEFAULT 1.0E-10
    &END QS
    &MGRID
      NGRIDS 4
      CUTOFF 135
      REL_CUTOFF 115
    &END MGRID
    &XC
      &XC_FUNCTIONAL PADE
      &END XC_FUNCTIONAL
    &END XC
    &SCF
      SCF_GUESS ATOMIC
      EPS_SCF 1.0E-7
      MAX_SCF 300
      &DIAGONALIZATION  ON
        ALGORITHM STANDARD
      &END DIAGONALIZATION
      &MIXING  T
        METHOD BROYDEN_MIXING
        ALPHA 0.4
        NBROYDEN 8
      &END MIXING
    &END SCF
  &END DFT
  &PRINT
    &FORCES ON
    &END FORCES
  &END PRINT
&END FORCE_EVAL
