&GLOBAL
  PROJECT H2O_bulk
  RUN_TYPE ENERGY_FORCE
  PRINT_LEVEL LOW
&END GLOBAL
&FORCE_EVAL
  METHOD Quickstep
  &SUBSYS
    &KIND H
      ELEMENT   H
      BASIS_SET DZVP-GTH-PBE
      POTENTIAL GTH-PBE-q1
    &END KIND
    &KIND O
      ELEMENT   O
      BASIS_SET DZVP-GTH-PBE
      POTENTIAL GTH-PBE-q6
    &END KIND
    &CELL
      A     46.937    0.000000000    0.000000000
      B     0.000000000    44.121    0.000000000
      C     0.000000000    0.000000000    45.182
    &END CELL
    &COORD

O 0.618761 1.21942 3.11518
H -0.217656 0.907429 3.35929
H 1.21113 0.896802 3.82854
O 6.16914 4.31321 0.891719
H 5.55221 4.77502 0.298759
H 6.16204 3.39682 0.621762
O 6.76923 5.68498 3.43494
H 7.64633 5.32707 3.47737
H 6.53576 5.28841 2.59274
O 4.94423 5.03703 5.4545
H 5.42968 5.37201 6.29687
H 5.56763 5.31948 4.76154
O 2.48624 -0.149598 4.88458
H 3.28005 0.385311 5.10971
H 2.79651 43.0183 5.0475
O 2.19437 5.95225 6.0934
H 3.10692 5.69251 5.80821
H 1.67677 5.68624 5.32208
O 5.48512 1.37873 0.316879
H 4.58476 1.1521 0.323967
H 5.89284 0.67976 -0.275325
O 5.1945 1.786 5.46585
H 5.05718 2.78765 5.51118
H 5.68152 1.58538 6.31648
O 0.972934 5.90601 8.59005
H 1.4033 5.85362 7.71775
H 0.741657 5.00584 8.88839
O 0.917032 4.79822 3.37748
H 0.942989 5.30103 2.57301
H 0.861036 3.87732 3.12588
O 1.63322 6.77146 0.0886567
H 1.56061 7.70523 -0.141792
H 1.41701 6.33452 -0.711872
O 2.44489 0.540005 0.743326
H 1.85752 -0.132997 0.409078
H 1.98255 0.814012 1.54535
O 6.43176 0.884551 3.067
H 5.98397 1.1554 2.19993
H 5.89826 1.1585 3.84101
O 6.56526 -0.203761 9.45049
H 5.90465 0.101968 10.0455
H 6.34395 43.0036 9.27005
O 6.58642 5.89741 7.94605
H 7.52669 5.61217 7.87599
H 6.52529 6.26026 8.84084
O 0.849577 0.943628 8.96159
H 0.428399 0.234817 9.28449
H 0.944444 0.733195 8.05886
O 8.97613 1.64689 3.11721
H 8.07986 1.4221 3.08826
H 9.36413 1.23474 2.31472
O 13.3743 4.86878 0.284329
H 13.8695 5.06626 -0.529105
H 13.8225 5.31954 1.02157
O 14.3581 6.21821 3.4448
H 14.3569 7.15381 3.5871
H 13.9004 5.81696 4.21123
O 13.0863 5.00366 5.83766
H 13.4238 5.2786 6.71219
H 12.2559 5.39799 5.77557
O 10.458 0.618801 5.70075
H 9.96051 0.897143 4.94575
H 9.92835 0.874199 6.46415
O 10.3109 6.00519 5.41945
H 9.95685 5.49514 4.70497
H 9.99851 6.8929 5.20839
O 12.8451 1.05835 0.60497
H 12.9662 1.97904 0.371831
H 13.418 0.903929 1.38127
O 13.0922 1.40697 5.59721
H 12.1255 1.20328 5.64057
H 13.1446 2.35383 5.71726
O 9.23068 4.93545 8.15025
H 9.2721 4.00249 8.29081
H 9.76436 5.10721 7.39026
O 9.28501 4.54795 3.26075
H 9.23938 3.6267 3.17379
H 9.55663 4.88301 2.42991
O 10.2388 5.71294 0.952562
H 9.83566 5.59039 0.119085
H 11.1723 5.52249 0.828758
O 10.1239 0.639702 0.757718
H 9.97246 43.8601 0.438006
H 11.1664 0.734544 0.66133
O 14.3216 0.505203 2.88182
H 15.1576 0.902042 3.09295
H 13.8566 0.701029 3.71344
O 13.6207 0.139049 8.69589
H 14.4515 0.491549 8.98313
H 13.5071 0.430042 7.78874
O 13.1392 6.18468 8.78042
H 13.5045 7.05882 8.94791
H 12.9066 5.86157 9.61948
O 9.41093 1.42223 8.6894
H 10.2487 1.06995 9.04734
H 8.68025 0.951473 9.07327
O 16.8611 1.7106 3.45887
H 16.8791 2.68119 3.43646
H 17.3407 1.46569 4.22444
O 20.9538 4.78582 0.375589
H 21.4283 5.06838 1.14017
H 20.0307 5.11053 0.449907
O 22.0187 5.85509 3.4514
H 22.9973 5.55144 3.41592
H 22.0274 6.85824 3.44619
O 20.9744 4.66825 5.6874
H 21.3657 5.06309 4.84454
H 21.018 3.72913 5.60564
O 18.2949 0.349146 5.83715
H 19.1071 0.730163 5.74419
H 18.3901 43.5747 5.5826
O 18.2898 5.71836 5.40688
H 17.9565 5.45921 6.21651
H 19.2252 5.36533 5.5039
O 20.7292 1.66769 0.408793
H 21.3652 1.42537 1.07148
H 20.738 2.63539 0.391907
O 20.8884 1.7521 5.77033
H 21.3148 1.46832 6.65699
H 21.3787 1.22539 5.09292
O 17.5883 4.56288 8.29293
H 17.8151 3.65823 8.37568
H 16.7058 4.59446 8.64687
O 16.9317 5.02208 3.19453
H 16.0259 5.31775 3.35445
H 17.4098 5.33033 4.08299
O 18.3623 5.79664 0.607234
H 18.3102 6.7389 0.511111
H 17.9438 5.6213 1.45252
O 18.4163 -0.216134 0.0389115
H 19.1368 0.378753 0.10484
H 17.7623 -0.0182282 0.694605
O 22.4834 0.192845 3.80782
H 23.3197 0.65892 3.5897
H 22.676 43.386 3.85512
O 22.1815 0.662729 8.0037
H 23.0477 1.00733 8.18542
H 22.3199 -0.282351 7.9198
O 22.2157 5.79294 8.22365
H 22.0806 6.71897 8.03319
H 21.8058 5.36463 7.44811
O 17.9482 1.76928 8.65181
H 18.6842 1.44676 9.10573
H 17.9483 1.33705 7.8175
O 24.7636 1.62109 3.37217
H 25.3195 1.22658 2.69332
H 25.1407 1.35282 4.22722
O 29.1951 5.01614 0.209172
H 29.5194 5.48434 -0.518585
H 29.489 4.05239 0.0970725
O 30.2577 5.96925 3.02764
H 29.76 5.79038 2.1885
H 31.1542 6.18109 2.74721
O 28.7185 5.02064 5.86404
H 29.2548 5.43742 5.18101
H 27.8093 5.30339 5.71445
O 25.7428 0.833873 5.65378
H 26.7269 1.05149 5.65512
H 25.5143 1.10145 6.60621
O 25.8694 6.09766 5.64304
H 25.4661 5.75322 4.87746
H 25.8538 6.99737 5.5063
O 29.117 1.20921 0.296613
H 29.5806 0.807712 1.08222
H 29.5745 0.950663 -0.476939
O 28.5223 1.39652 5.7132
H 28.7306 2.30138 5.6088
H 29.0192 0.936971 5.03531
O 24.9089 4.30565 8.19195
H 24.156 4.87212 8.31219
H 25.3462 4.68572 7.44603
O 24.7959 4.77641 3.31209
H 24.7711 3.8285 3.23187
H 25.222 5.08429 2.46879
O 25.9209 5.66478 0.975287
H 25.8809 6.5571 0.627081
H 26.733 5.28197 0.625584
O 25.9965 0.719509 0.77984
H 25.5765 44.2163 0.156718
H 26.7824 1.02448 0.314833
O 30.9737 -0.22471 2.93649
H 31.2976 42.9484 2.86813
H 31.6248 0.19779 3.43616
O 30.5184 0.248456 8.98611
H 30.28 0.970347 8.43086
H 31.065 -0.284227 8.40992
O 30.6691 5.80939 8.87127
H 30.1878 5.67322 8.12492
H 30.4615 6.74182 9.08638
O 24.9506 1.74698 8.37489
H 24.9143 2.76645 8.34455
H 25.5005 1.57504 9.10109
    
    &END COORD
  &END SUBSYS
  &DFT
    BASIS_SET_FILE_NAME  BASIS_SET
    POTENTIAL_FILE_NAME  GTH_POTENTIALS
    &QS
      EPS_DEFAULT 1.0E-10
    &END QS
    &MGRID
      NGRIDS 4
      CUTOFF 135
      REL_CUTOFF 115
    &END MGRID
    &XC
      &XC_FUNCTIONAL PADE
      &END XC_FUNCTIONAL
    &END XC
    &SCF
      SCF_GUESS ATOMIC
      EPS_SCF 1.0E-7
      MAX_SCF 300
      &DIAGONALIZATION  ON
        ALGORITHM STANDARD
      &END DIAGONALIZATION
      &MIXING  T
        METHOD BROYDEN_MIXING
        ALPHA 0.4
        NBROYDEN 8
      &END MIXING
    &END SCF
  &END DFT
  &PRINT
    &FORCES ON
    &END FORCES
  &END PRINT
&END FORCE_EVAL
