&GLOBAL
  PROJECT H2O_bulk
  RUN_TYPE ENERGY_FORCE
  PRINT_LEVEL LOW
&END GLOBAL
&FORCE_EVAL
  METHOD Quickstep
  &SUBSYS
    &KIND H
      ELEMENT   H
      BASIS_SET DZVP-GTH-PBE
      POTENTIAL GTH-PBE-q1
    &END KIND
    &KIND O
      ELEMENT   O
      BASIS_SET DZVP-GTH-PBE
      POTENTIAL GTH-PBE-q6
    &END KIND
    &CELL
      A     46.937    0.000000000    0.000000000
      B     0.000000000    44.121    0.000000000
      C     0.000000000    0.000000000    45.182
    &END CELL
    &COORD

O 2.19333 3.37986 6.65025
H 1.75285 3.58255 7.52764
H 2.19903 4.2256 6.25682
O 4.92483 1.11835 43.5424
H 4.16708 1.53886 43.0181
H 4.72349 0.224361 43.3445
O 5.62425 1.60058 0.94457
H 4.93285 1.26239 1.52234
H 5.39406 1.32406 0.0427296
O 5.25673 5.02624 1.98912
H 6.19402 5.35413 2.04777
H 5.40986 4.07553 2.11239
O 2.25563 6.11017 5.71545
H 2.51918 6.4129 4.85399
H 2.46236 6.79631 6.29081
O 3.72225 5.49781 44.915
H 4.23514 5.03436 0.47575
H 4.18275 6.31411 44.8062
O 3.32031 3.5483 42.7182
H 3.62437 4.1039 43.3812
H 2.35944 3.58226 42.8336
O 2.90747 5.86487 3.07347
H 3.79574 5.74029 2.61891
H 2.37589 5.99758 2.24417
O 6.45678 11.0888 43.3834
H 7.37219 11.1513 43.1482
H 6.34785 11.8648 43.9677
O 4.72485 8.25854 44.3635
H 5.65133 8.29342 44.25
H 4.43146 9.14404 44.1271
O 10.3456 38.1733 26.782
H 11.1153 37.7135 26.4186
H 9.90265 37.4749 27.236
O 2.67846 1.03682 5.13743
H 2.62146 0.43865 5.90223
H 2.60754 1.96466 5.35324
O 3.38911 0.456745 2.31035
H 3.23824 43.5872 2.32071
H 3.07434 0.723418 3.17974
O 17.4804 42.1713 5.5738
H 17.1675 42.058 6.47517
H 17.3161 43.1018 5.4495
O 7.8232 5.39006 2.28045
H 8.6283 5.82804 1.91549
H 8.18086 4.92026 3.06016
O 0.474217 11.5401 4.33978
H 47.7159 11.9394 5.07275
H 1.13472 10.9113 4.19088
O 12.6474 42.6539 0.443304
H 13.3561 42.2104 0.967396
H 12.6305 42.3284 44.7068
O 10.3977 1.11521 42.4534
H 10.8223 1.59707 41.7854
H 9.54564 0.931223 42.0844
O 15.4816 6.57409 4.06163
H 14.9515 7.25957 4.57853
H 14.9833 5.72703 4.08647
O 13.9705 4.16339 3.7576
H 13.0669 4.24321 4.06016
H 13.9055 3.77322 2.90439
O 7.30329 2.17416 6.56133
H 6.39012 1.95123 6.39877
H 7.84093 1.36051 6.55577
O 8.10679 1.67623 2.10076
H 8.82614 1.10801 1.70173
H 7.32795 1.80745 1.53778
O 16.8529 40.5826 3.30691
H 16.7773 41.0423 4.17576
H 17.8039 40.7344 3.05744
O 14.2666 2.25305 5.65542
H 14.4049 2.93178 4.97395
H 14.0059 2.75914 6.41459
O 8.6784 3.46088 4.30304
H 8.01905 3.39889 4.97164
H 8.64201 2.66362 3.76731
O 13.4005 2.75959 1.34848
H 13.8966 2.44129 0.615912
H 12.7394 2.10221 1.28219
O 11.0873 0.876474 0.585964
H 10.8199 0.894755 44.8211
H 11.4193 -0.0112664 0.614519
O 14.5163 41.0205 1.90938
H 14.3864 40.1002 2.08039
H 15.3004 41.2044 2.32499
O 16.8962 0.979767 5.95887
H 17.4865 1.4072 5.30482
H 16.0359 1.43166 5.96746
O 12.1744 44.2588 4.70186
H 12.5178 43.5524 4.12132
H 12.931 0.500008 5.09495
O 11.4052 4.53211 4.58917
H 11.0418 5.37574 4.39007
H 10.7003 3.89561 4.47491
O 8.56357 43.8217 5.99212
H 9.51335 -0.140225 5.89507
H 8.61274 42.9465 6.37503
O 18.5001 2.79833 4.19143
H 18.4857 3.78855 4.2046
H 19.2345 2.52659 3.61055
O 18.154 9.85312 1.18002
H 19.1125 9.60818 1.19382
H 17.772 8.98758 1.26615
O 24.3335 6.65863 2.70024
H 23.7656 6.55513 1.93835
H 24.6356 7.55394 2.68102
O 23.0515 7.14578 5.42036
H 23.0447 8.13887 5.56723
H 23.029 6.9564 4.46704
O 21.3544 0.00699436 8.97718
H 21.8073 43.3011 8.87247
H 22.0907 0.429417 9.4845
O 19.9553 6.11357 6.17313
H 19.9215 5.36559 6.82032
H 20.8993 6.32022 6.09214
O 16.4476 11.9021 1.5825
H 16.0431 11.6064 0.800258
H 17.101 11.19 1.66154
O 23.9116 43.9831 10.2428
H 24.6453 43.8685 9.62998
H 24.2639 0.080686 11.0899
O 19.2332 4.76843 8.58441
H 19.1784 3.84421 8.36487
H 18.4481 4.99088 9.10652
O 18.323 5.67391 4.11481
H 17.4383 5.87412 4.42146
H 18.9416 5.96515 4.81229
O 17.3966 7.28299 1.99807
H 18.0577 6.65118 2.27227
H 16.6728 7.18301 2.68572
O 16.2918 15.0088 2.93791
H 16.2142 14.1325 2.53683
H 16.8718 14.791 3.68028
O 27.8512 41.5776 7.67585
H 28.2389 41.5859 6.78046
H 28.1626 40.772 7.99663
O 26.4562 44.1375 9.03151
H 27.0159 0.776157 9.13872
H 27.0263 43.4198 8.62564
O 25.2461 6.50829 7.48457
H 25.8818 7.17513 7.34819
H 24.598 6.61408 6.75883
O 18.7136 1.85467 8.49364
H 18.2723 1.54119 7.7488
H 19.3731 1.14083 8.69605
O 28.5569 40.7778 4.93216
H 28.2894 40.9949 4.06555
H 29.0514 39.9607 4.87755
O 22.6076 7.48558 42.0954
H 22.551 7.90053 41.1809
H 22.7545 8.27274 42.5735
O 23.4291 10.5199 42.2374
H 24.3012 10.4484 42.5335
H 23.2481 11.3749 42.5117
O 31.4529 7.10668 3.87564
H 30.7587 6.68996 4.35974
H 32.2282 6.66397 4.2188
O 29.9504 3.42659 7.74845
H 30.789 2.89982 7.78543
H 29.4242 2.81702 8.28955
O 29.8146 5.49978 5.66123
H 29.9438 4.76031 6.2932
H 28.9645 5.31486 5.39291
O 26.2318 43.1877 1.20718
H 25.7424 43.5078 0.402924
H 25.8405 -0.437325 1.91479
O 32.6736 2.68179 7.99125
H 32.8926 1.80497 8.28689
H 33.4442 2.90618 7.44812
O 25.6238 4.8885 9.82755
H 25.3755 5.32328 8.96489
H 25.6722 5.56428 10.5466
O 22.6847 6.03681 0.344277
H 21.9436 6.4685 45.1754
H 23.2106 5.89314 44.7161
O 24.0862 5.19424 43.2012
H 25.0066 5.11626 43.004
H 23.6913 5.85145 42.6176
O 27.4589 41.0914 2.43766
H 27.1431 41.8354 1.80322
H 27.3829 40.2182 2.0112
O 23.3739 42.4804 44.1586
H 23.7702 41.6494 43.8836
H 22.5367 42.2172 44.3446
O 28.3372 23.1 38.8387
H 27.6518 22.5446 39.2739
H 27.7776 23.7576 38.3561
O 30.8667 9.50853 2.5337
H 31.1094 8.73415 3.06507
H 31.6909 9.69626 1.96414
O 27.7008 2.71663 9.81726
H 27.0876 3.4719 9.81269
H 27.969 2.59507 10.7636
    
    &END COORD
  &END SUBSYS
  &DFT
    BASIS_SET_FILE_NAME  BASIS_SET
    POTENTIAL_FILE_NAME  GTH_POTENTIALS
    &QS
      EPS_DEFAULT 1.0E-10
    &END QS
    &MGRID
      NGRIDS 4
      CUTOFF 135
      REL_CUTOFF 115
    &END MGRID
    &XC
      &XC_FUNCTIONAL PADE
      &END XC_FUNCTIONAL
    &END XC
    &SCF
      SCF_GUESS ATOMIC
      EPS_SCF 1.0E-7
      MAX_SCF 300
      &DIAGONALIZATION  ON
        ALGORITHM STANDARD
      &END DIAGONALIZATION
      &MIXING  T
        METHOD BROYDEN_MIXING
        ALPHA 0.4
        NBROYDEN 8
      &END MIXING
    &END SCF
  &END DFT
  &PRINT
    &FORCES ON
    &END FORCES
  &END PRINT
&END FORCE_EVAL
