&GLOBAL
  PROJECT H2O_bulk
  RUN_TYPE ENERGY_FORCE
  PRINT_LEVEL LOW
&END GLOBAL
&FORCE_EVAL
  METHOD Quickstep
  &SUBSYS
    &KIND H
      ELEMENT   H
      BASIS_SET DZVP-GTH-PBE
      POTENTIAL GTH-PBE-q1
    &END KIND
    &KIND O
      ELEMENT   O
      BASIS_SET DZVP-GTH-PBE
      POTENTIAL GTH-PBE-q6
    &END KIND
    &CELL
      A     46.937    0.000000000    0.000000000
      B     0.000000000    44.121    0.000000000
      C     0.000000000    0.000000000    45.182
    &END CELL
    &COORD

O 3.81738 3.36002 6.30629
H 2.92023 3.33643 6.13378
H 4.0721 4.30208 6.2919
O 5.58967 1.52235 43.973
H 4.78596 1.846 43.5731
H 6.09178 1.45489 43.1947
O 6.90479 2.69423 1.22705
H 6.54291 1.98823 1.72297
H 6.58332 2.38309 0.400052
O 4.34764 4.76045 0.828333
H 4.82515 3.95223 0.931132
H 4.04315 4.79876 45.117
O 4.0437 6.33398 5.80994
H 3.7254 6.2589 4.88888
H 4.8957 6.6898 5.79137
O 3.07073 5.42144 41.6206
H 2.77714 6.08176 40.96
H 3.99325 5.72721 41.7411
O 2.94564 2.74428 42.5774
H 2.96442 3.6823 42.5203
H 2.7561 2.46422 41.6541
O 4.5546 6.53133 3.00565
H 5.55957 6.61516 3.02044
H 4.32619 5.95855 2.23217
O 8.23098 8.08599 40.9312
H 8.4055 8.94743 40.5287
H 9.04742 7.98719 41.5466
O 5.57694 6.58905 40.6337
H 6.28311 7.22325 40.8992
H 6.14549 6.00487 40.0741
O 45.5006 3.55914 21.1215
H 44.9108 4.09089 21.6283
H -0.792779 4.23994 20.8615
O 4.60461 1.09406 4.861
H 4.82985 1.43462 5.74541
H 4.03658 1.8885 4.61399
O 5.76437 0.328606 2.44587
H 5.18831 -0.374355 2.15367
H 5.50924 0.685366 3.32441
O 17.5933 42.9523 44.6036
H 17.4738 43.5508 43.9029
H 18.2098 43.2814 0.0964638
O 7.32577 6.75999 4.02419
H 7.75103 7.6124 4.12969
H 7.98013 6.11468 3.79956
O 4.2714 3.19462 19.1359
H 5.21297 2.94749 19.0753
H 4.28829 4.12239 18.7851
O 11.1849 42.509 1.84024
H 11.67 41.741 1.49356
H 10.3142 42.2036 2.07935
O 10.7218 43.2159 42.9007
H 9.80212 43.2387 43.0479
H 10.7584 43.6308 42.0442
O 14.4806 5.76424 3.6035
H 14.2115 5.52175 4.48195
H 14.3469 4.96102 3.13058
O 14.2794 3.12865 3.0413
H 13.5115 3.02564 3.56158
H 14.0697 2.77198 2.13843
O 12.1203 3.58171 8.21125
H 11.7627 3.66399 9.11124
H 12.4953 2.70523 8.28071
O 9.62035 3.43494 1.04539
H 10.2717 2.86528 0.62363
H 8.75032 2.99351 0.960385
O 15.5282 40.3922 44.8289
H 16.3467 40.885 44.9901
H 15.7366 39.6562 44.2455
O 16.4381 2.48142 5.14813
H 15.6695 2.58085 4.53891
H 17.0155 3.19606 4.83322
O 9.16688 4.32843 3.7329
H 8.49042 3.82497 4.09608
H 9.32304 4.08094 2.77842
O 13.5796 1.84258 0.64228
H 13.8953 2.26163 45.0488
H 12.7346 1.39662 0.438026
O 11.1875 0.787225 0.159458
H 11.157 0.512691 44.4364
H 11.223 44.0827 0.687923
O 12.8637 40.137 0.735411
H 12.9062 39.1955 0.787157
H 13.6705 40.3094 0.246921
O 19.5888 0.185306 0.830503
H 19.0219 0.915742 1.07408
H 19.8803 44.1276 1.73061
O 15.9668 1.31951 7.74767
H 16.6947 0.724275 7.6856
H 16.0931 1.78764 6.90245
O 12.4245 4.47168 5.22478
H 12.1784 4.05925 6.08328
H 11.5766 4.60006 4.74211
O 13.3545 1.0713 8.6273
H 14.1665 0.922461 8.16447
H 13.6233 0.802768 9.48152
O 17.808 2.21845 2.14752
H 17.8623 3.15961 2.45818
H 16.8469 2.05338 2.16043
O 15.111 10.8883 4.10433
H 14.7666 10.2515 4.74424
H 14.7297 10.5677 3.22237
O 19.6151 7.1447 3.08216
H 20.1487 6.87068 2.33451
H 18.9307 6.42641 3.13033
O 20.6857 7.76287 5.5581
H 20.8216 8.69624 5.78414
H 20.5145 7.77047 4.56346
O 20.8752 0.165844 9.23378
H 20.965 43.6281 8.57446
H 21.8042 44.4502 9.49117
O 18.3224 5.89795 6.05091
H 18.5515 5.39458 6.81684
H 19.11 6.44962 5.9255
O 15.6076 13.6494 5.08044
H 15.1502 12.8187 4.81107
H 16.5474 13.3977 5.09273
O 23.5765 0.669243 9.83698
H 24.4598 0.433386 9.45814
H 23.6614 1.62782 9.76684
O 20.5216 4.83041 8.06166
H 20.2186 3.91924 8.1271
H 20.7274 5.07127 8.97338
O 17.3715 4.9805 3.72101
H 16.4623 5.45361 3.70675
H 17.7865 5.24824 4.58406
O 12.4973 8.85521 4.39612
H 11.6515 8.68684 4.78544
H 12.6731 7.99936 3.98728
O 14.8812 16.1029 3.87855
H 15.2949 15.2685 4.07054
H 15.1729 16.2415 2.9809
O 27.5053 43.1466 8.12961
H 28.4475 43.2413 7.92589
H 27.3048 42.4282 7.53402
O 26.0796 1.2667 8.25217
H 26.4101 2.16617 8.30488
H 26.7985 0.667302 7.91268
O 22.7651 5.82939 6.20186
H 22.0769 5.49699 6.78895
H 22.4041 6.67249 5.87638
O 19.5347 2.34584 8.00817
H 18.9478 2.18791 7.33808
H 19.8963 1.46883 8.23755
O 28.1546 41.0798 5.98277
H 27.9752 40.635 5.17892
H 28.9906 40.6863 6.29025
O 22.5934 8.4149 41.5107
H 22.6493 7.66616 40.8268
H 21.8594 8.93867 41.0877
O 20.3331 8.88678 39.3768
H 20.566 9.25146 38.5192
H 19.4922 9.24155 39.6347
O 33.725 5.06124 3.09491
H 33.0457 5.31767 3.7251
H 33.3541 4.46763 2.46257
O 30.5382 3.85346 6.97221
H 30.8467 3.52224 7.79597
H 29.5845 4.05201 7.22882
O 31.8917 5.89067 5.01275
H 31.3509 5.27357 5.4735
H 32.4038 6.28687 5.67921
O 26.2855 40.9507 0.828126
H 26.5279 40.5066 45.0732
H 26.4786 41.8802 0.714183
O 31.2335 2.08918 9.77987
H 31.7807 1.31439 9.57333
H 31.8793 2.47513 10.3682
O 25.551 5.49869 6.74055
H 24.623 5.41346 6.53883
H 25.6267 6.36368 7.16987
O 21.506 6.36134 1.23923
H 21.428 6.42693 0.304249
H 22.4964 6.40178 1.36332
O 22.9475 7.93017 44.3925
H 23.7606 8.46595 44.4122
H 22.5986 7.98035 43.5146
O 27.0546 40.0936 3.43988
H 27.3911 40.1136 2.50074
H 26.1707 40.465 3.39797
O 27.7915 43.4909 1.44257
H 27.9382 43.3796 2.39874
H 28.6748 -0.45091 1.21815
O 23.844 17.3993 1.95071
H 22.9514 17.2001 2.07378
H 23.7516 18.1679 1.41695
O 36.3266 6.27065 2.64537
H 35.6725 5.50417 2.75654
H 37.034 5.76693 2.28297
O 27.4097 3.88059 8.07372
H 26.7022 4.342 7.58368
H 27.4354 4.36618 8.97151
    
    &END COORD
  &END SUBSYS
  &DFT
    BASIS_SET_FILE_NAME  BASIS_SET
    POTENTIAL_FILE_NAME  GTH_POTENTIALS
    &QS
      EPS_DEFAULT 1.0E-10
    &END QS
    &MGRID
      NGRIDS 4
      CUTOFF 135
      REL_CUTOFF 115
    &END MGRID
    &XC
      &XC_FUNCTIONAL PADE
      &END XC_FUNCTIONAL
    &END XC
    &SCF
      SCF_GUESS ATOMIC
      EPS_SCF 1.0E-7
      MAX_SCF 300
      &DIAGONALIZATION  ON
        ALGORITHM STANDARD
      &END DIAGONALIZATION
      &MIXING  T
        METHOD BROYDEN_MIXING
        ALPHA 0.4
        NBROYDEN 8
      &END MIXING
    &END SCF
  &END DFT
  &PRINT
    &FORCES ON
    &END FORCES
  &END PRINT
&END FORCE_EVAL
