&GLOBAL
  PROJECT H2O_bulk
  RUN_TYPE ENERGY_FORCE
  PRINT_LEVEL LOW
&END GLOBAL
&FORCE_EVAL
  METHOD Quickstep
  &SUBSYS
    &KIND H
      ELEMENT   H
      BASIS_SET DZVP-GTH-PBE
      POTENTIAL GTH-PBE-q1
    &END KIND
    &KIND O
      ELEMENT   O
      BASIS_SET DZVP-GTH-PBE
      POTENTIAL GTH-PBE-q6
    &END KIND
    &CELL
      A     46.937    0.000000000    0.000000000
      B     0.000000000    44.121    0.000000000
      C     0.000000000    0.000000000    45.182
    &END CELL
    &COORD

O 0.665808 -0.081016 1.15195
H 46.9835 0.471571 1.70497
H 1.26888 -0.331347 1.82935
O 5.97449 3.93057 45.3832
H 5.69889 4.15429 44.5177
H 5.65159 3.01824 0.335816
O 6.53559 5.01635 2.60411
H 7.35974 4.71974 2.79662
H 6.31903 4.72687 1.71322
O 4.33434 5.00903 5.06544
H 4.97398 5.26749 5.82453
H 4.94246 5.02335 4.30248
O 2.05233 44.2505 3.58242
H 2.53683 0.89272 3.93885
H 2.49715 43.4923 4.11387
O 1.37397 6.28032 6.67128
H 2.31085 6.10816 6.48442
H 0.921782 6.01892 5.84926
O 4.63228 1.42258 -0.00455883
H 3.65397 1.29018 45.0448
H 4.9887 0.683765 44.6123
O 4.00674 2.03999 5.2004
H 4.14745 2.95755 5.35804
H 4.37569 1.74283 6.02511
O 0.428793 8.93039 7.42855
H 0.885952 8.08059 7.20543
H 0.27635 8.82781 8.37205
O -0.0456732 5.74101 4.30676
H 46.1446 6.34011 4.29096
H 0.464749 5.95605 3.51358
O 44.6933 10.0432 43.2024
H 44.0943 9.47046 43.6713
H 44.5102 10.8688 43.6291
O 2.21037 0.883712 44.4065
H 1.90237 1.58622 43.8116
H 1.44869 0.641073 44.967
O 5.98792 1.36263 2.91849
H 5.48604 1.26928 2.09357
H 5.43625 1.61114 3.62642
O 9.90948 42.9962 12.4601
H 9.82196 43.2036 13.3932
H 10.8713 43.0545 12.3426
O 6.17446 5.32918 7.24417
H 7.0599 5.14488 7.46499
H 5.80801 5.40938 8.12953
O 45.8202 42.0012 12.6262
H 45.0904 42.3537 12.1446
H 46.5232 42.4432 12.2259
O 8.7213 1.43334 3.60142
H 7.76303 1.39705 3.29218
H 9.22266 0.830632 2.91794
O 12.5929 5.71702 44.6875
H 12.6318 5.45214 43.7537
H 13.4211 6.23851 -0.398354
O 14.4496 7.54061 5.20809
H 14.6143 8.46606 5.35584
H 13.5745 7.45234 5.56465
O 11.8285 7.69249 6.08312
H 11.5361 7.83136 6.9916
H 11.3588 6.85309 5.89442
O 9.63642 1.41014 6.12274
H 9.09325 1.25528 5.26588
H 9.1868 0.940198 6.82219
O 9.84286 5.51763 5.54749
H 10.2196 4.8647 4.97259
H 9.07543 5.6968 5.01192
O 13.1568 -0.135174 1.4393
H 13.8025 -0.0474977 0.747968
H 13.5856 0.20211 2.1951
O 12.1808 0.696096 5.80482
H 11.2243 0.839068 5.74782
H 12.4038 1.21495 6.56353
O 8.91291 4.48781 8.2264
H 8.97908 3.573 8.44375
H 9.33108 4.51062 7.38568
O 9.27057 4.19588 3.19807
H 9.16998 3.26113 3.18074
H 9.59519 4.478 2.36681
O 10.308 5.22585 0.964904
H 9.92141 5.65114 0.236863
H 11.2148 5.15746 0.669378
O 10.3091 0.262417 1.35819
H 9.98271 44.225 0.486538
H 11.2755 0.21476 1.39669
O 14.1872 0.725557 3.82361
H 15.0469 1.12364 4.10454
H 13.4858 0.883215 4.51345
O 12.0753 43.0718 9.04407
H 12.8418 42.5527 9.29459
H 12.1057 43.132 8.08206
O 10.4255 7.43614 8.70339
H 9.83626 8.01903 9.1312
H 9.97303 6.59941 8.73387
O 8.76447 0.276418 8.65376
H 9.38975 43.7944 9.06973
H 7.92605 44.2972 9.12325
O 16.8773 1.74049 4.2184
H 17.0698 2.62692 4.53522
H 17.5626 1.23324 4.72565
O 19.7513 3.62522 0.82826
H 20.5572 3.95374 1.19929
H 19.06 4.23245 1.02381
O 22.579 4.7806 2.65984
H 23.5121 4.38285 2.65348
H 22.7331 5.75686 2.69591
O 21.4316 4.28121 5.13165
H 21.879 4.57917 4.27321
H 21.6174 3.25107 5.14352
O 18.9736 0.444266 5.88681
H 19.905 0.732659 5.68071
H 18.9901 -0.507704 5.92993
O 18.7642 5.10079 5.81166
H 18.7739 4.93676 6.76308
H 19.601 4.80075 5.44492
O 20.369 1.78362 43.7098
H 20.1795 2.59453 43.262
H 20.1244 2.12144 44.5808
O 21.6665 1.35944 5.3548
H 22.0219 1.1579 6.2861
H 22.2621 1.02576 4.62452
O 18.6014 4.77982 8.63874
H 18.7851 3.88516 8.82417
H 17.6858 4.93478 8.87967
O 17.0173 6.27747 4.23558
H 16.2342 6.65353 4.6458
H 17.5422 5.8654 4.93364
O 17.7262 5.86549 1.6563
H 18.034 6.74695 1.43449
H 17.4568 5.88706 2.62537
O 20.3356 43.1784 42.3449
H 20.3148 43.9751 42.8901
H 20.3479 43.427 41.4182
O 23.1881 0.843009 3.24936
H 24.1478 1.07062 3.25038
H 23.1862 0.0453213 2.71132
O 22.3703 1.0319 7.96787
H 23.2937 1.47894 8.02637
H 22.3542 0.189345 8.48557
O 22.5274 5.47708 7.22437
H 21.7879 6.01666 7.51019
H 22.1434 4.91298 6.50542
O 19.4039 1.90373 8.72138
H 20.3332 1.94307 8.56222
H 19.0605 1.45919 7.90049
O 26.0241 1.75179 3.31194
H 26.7826 1.38282 2.81802
H 26.3963 1.6731 4.28079
O 29.27 5.89681 44.8554
H 29.6748 6.24797 43.9475
H 29.2678 4.94989 44.7004
O 30.0559 7.09041 2.2638
H 29.9622 6.77771 1.39077
H 29.2291 7.55449 2.45087
O 29.8321 6.53648 6.97778
H 30.162 6.51585 6.09446
H 28.9057 6.77926 6.88068
O 26.6721 1.40789 5.85735
H 27.5576 1.51489 6.09927
H 26.1381 1.702 6.69583
O 26.9512 6.16036 6.23315
H 26.867 5.56093 5.4683
H 26.2601 6.78957 6.07192
O 29.8639 42.9957 45.0853
H 30.5652 42.3799 0.0549013
H 29.7526 43.0649 44.1191
O 29.4663 1.62243 6.58255
H 30.1201 2.31155 6.34479
H 30.05 0.937638 6.90627
O 24.5347 4.62513 8.55405
H 23.6808 5.0149 8.27252
H 25.1665 5.03649 7.97247
O 25.008 4.3256 2.62223
H 25.3294 3.41436 2.84306
H 25.4973 4.73011 1.96928
O 26.282 5.98469 0.716223
H 25.8055 6.76439 0.51407
H 27.0864 6.0261 0.186907
O 27.5931 0.879599 1.31391
H 28.246 0.168713 1.17873
H 27.7582 1.5341 0.677123
O 32.6682 41.8304 -0.189201
H 33.4751 42.1379 0.26691
H 32.9834 41.0638 44.4751
O 32.1676 41.8915 12.3791
H 32.8483 41.7281 11.7554
H 31.6704 41.1352 12.251
O 31.6027 6.77256 9.64269
H 31.0916 6.70226 8.85499
H 31.0781 7.44123 10.1975
O 25.2143 2.07407 8.29663
H 25.0098 3.14055 8.28627
H 25.6236 1.88167 9.13648
    
    &END COORD
  &END SUBSYS
  &DFT
    BASIS_SET_FILE_NAME  BASIS_SET
    POTENTIAL_FILE_NAME  GTH_POTENTIALS
    &QS
      EPS_DEFAULT 1.0E-10
    &END QS
    &MGRID
      NGRIDS 4
      CUTOFF 135
      REL_CUTOFF 115
    &END MGRID
    &XC
      &XC_FUNCTIONAL PADE
      &END XC_FUNCTIONAL
    &END XC
    &SCF
      SCF_GUESS ATOMIC
      EPS_SCF 1.0E-7
      MAX_SCF 300
      &DIAGONALIZATION  ON
        ALGORITHM STANDARD
      &END DIAGONALIZATION
      &MIXING  T
        METHOD BROYDEN_MIXING
        ALPHA 0.4
        NBROYDEN 8
      &END MIXING
    &END SCF
  &END DFT
  &PRINT
    &FORCES ON
    &END FORCES
  &END PRINT
&END FORCE_EVAL
