&GLOBAL
  PROJECT H2O_bulk
  RUN_TYPE ENERGY_FORCE
  PRINT_LEVEL LOW
&END GLOBAL
&FORCE_EVAL
  METHOD Quickstep
  &SUBSYS
    &KIND H
      ELEMENT   H
      BASIS_SET DZVP-GTH-PBE
      POTENTIAL GTH-PBE-q1
    &END KIND
    &KIND O
      ELEMENT   O
      BASIS_SET DZVP-GTH-PBE
      POTENTIAL GTH-PBE-q6
    &END KIND
    &CELL
      A     46.937    0.000000000    0.000000000
      B     0.000000000    44.121    0.000000000
      C     0.000000000    0.000000000    45.182
    &END CELL
    &COORD

O 1.66766 0.889199 0.0404379
H 1.13051 44.6332 -0.684418
H 1.04934 1.07539 0.77539
O 4.51059 5.05015 0.0190834
H 4.69794 5.94854 -0.328356
H 4.82232 4.44217 44.5536
O 5.03546 4.42155 2.59496
H 5.22043 3.52637 2.42989
H 4.91265 4.68691 1.65917
O 2.6591 4.40234 4.91558
H 3.11114 4.54321 5.87332
H 3.37348 4.42428 4.27433
O 47.0766 1.0904 2.32975
H 0.452581 1.76834 3.07512
H 46.1152 1.07257 2.2844
O 1.68619 6.98585 4.34517
H 1.94528 6.03818 4.45944
H 0.936627 7.21367 4.87837
O 5.73962 2.61987 44.1733
H 5.21165 1.85147 44.0961
H 6.373 2.65203 43.419
O 0.26411 2.94982 4.36916
H 1.14314 3.38578 4.57527
H -0.0432865 2.64453 5.24915
O 3.23915 9.06394 2.97719
H 2.84031 8.24502 3.38689
H 4.17583 8.88773 3.08211
O 46.4999 7.35371 6.55543
H 45.9238 6.64092 6.79174
H 45.8587 8.04541 6.42474
O 36.9765 16.3464 39.5025
H 36.2021 15.9624 39.83
H 36.9111 17.2165 39.9344
O 4.19229 -0.0206926 45.2865
H 4.09897 43.1304 45.2129
H 3.25385 0.283979 45.3396
O 5.83758 1.86531 1.71162
H 6.17347 2.13506 0.804185
H 5.1507 1.28192 1.42263
O 13.5369 42.7813 9.28213
H 13.2448 42.1361 9.91823
H 14.3618 43.1683 9.63963
O 4.32157 5.02112 7.20686
H 5.23581 4.69659 7.0285
H 4.37327 5.88337 7.656
O 41.9073 36.0772 19.8607
H 42.377 36.744 19.3637
H 41.5866 36.5675 20.5716
O 9.65872 1.24039 3.78448
H 8.95335 0.88703 3.23516
H 10.316 0.53467 3.85487
O 10.0463 7.02812 43.2937
H 10.1541 7.9271 43.5692
H 9.67451 7.18573 42.4541
O 14.2663 5.78457 5.12875
H 14.5052 6.75699 5.1971
H 13.2664 5.77292 5.23909
O 11.6019 6.28825 5.26555
H 10.9724 6.11431 5.99897
H 11.2096 5.81626 4.5671
O 8.6644 1.9822 7.15085
H 8.87418 1.68151 6.27118
H 8.75111 1.24159 7.80331
O 7.86282 4.92447 3.82879
H 8.57248 4.52634 3.33923
H 7.01884 4.78654 3.38127
O 13.3946 43.408 5.91058
H 13.1284 43.0213 6.73723
H 14.0023 44.1079 6.13275
O 11.4131 2.85214 7.74569
H 10.4983 2.55256 7.49425
H 11.1862 3.77551 7.96034
O 7.11036 4.44771 6.62786
H 7.45006 3.55881 6.67289
H 7.29674 4.64154 5.73199
O 10.5324 3.84697 2.91743
H 10.3153 2.89605 3.06916
H 10.7431 3.96227 1.96059
O 10.3073 4.34325 44.533
H 10.3213 3.68852 43.834
H 10.1079 5.20151 44.2192
O 11.6687 43.5614 3.82213
H 12.1997 43.0835 3.18503
H 12.1641 43.6197 4.61478
O 14.7226 1.19877 7.41486
H 15.6498 1.1972 7.05351
H 14.2671 2.04074 7.30395
O 11.6793 45.0825 9.98772
H 12.4396 44.5988 9.62762
H 11.6303 1.7418 9.46592
O 9.75807 5.24887 8.15696
H 9.81087 5.92271 8.84421
H 8.88938 4.87688 8.2229
O 9.28585 43.9842 8.94989
H 10.1394 44.1885 9.38263
H 9.29337 43.1013 8.62885
O 17.2324 1.08586 6.47757
H 17.7383 1.88698 6.4797
H 17.8682 0.361311 6.67143
O 19.4938 5.52312 0.707903
H 20.257 5.43895 1.24998
H 18.6968 5.16689 1.20121
O 22.2481 4.64841 1.97702
H 22.7025 4.19422 1.25384
H 22.8336 5.39291 2.09674
O 21.4221 3.19896 4.78984
H 21.4802 3.59921 3.90297
H 21.7546 2.29513 4.6943
O 20.8998 43.5591 6.58932
H 21.4207 -0.245684 5.82358
H 20.7273 42.6254 6.46644
O 19.009 3.46566 6.29014
H 19.4538 3.66225 7.09333
H 19.7664 3.39921 5.66949
O 19.5599 4.39259 43.3875
H 18.8009 4.76513 42.9422
H 19.6594 4.74667 44.3325
O 22.7294 0.618054 4.83619
H 23.3781 0.693182 5.55443
H 23.261 0.294268 4.10034
O 20.6573 3.45959 8.62017
H 20.7579 2.54628 8.84868
H 20.4117 3.88157 9.45281
O 16.7112 5.08883 4.44222
H 15.7629 5.06011 4.71579
H 17.1835 4.58794 5.10244
O 17.2254 4.59846 1.78761
H 16.5424 4.047 1.41814
H 17.0154 4.76708 2.71925
O 21.452 4.84998 41.4529
H 21.0549 4.4734 42.2318
H 22.3625 4.66934 41.5843
O 24.837 -0.252166 3.14072
H 25.5741 0.354806 3.19843
H 24.9901 43.3979 2.32277
O 24.0954 0.530834 7.39315
H 24.5227 1.41016 7.61883
H 24.7547 44.0482 7.60149
O 22.7288 5.08788 6.81706
H 22.1078 4.86259 7.51025
H 22.484 4.55297 6.06039
O 20.6966 0.591521 9.2004
H 21.5746 0.395592 9.56394
H 20.7477 0.222374 8.28732
O 27.6842 1.21529 3.28292
H 28.5033 0.664684 3.08822
H 27.7948 1.82039 4.0049
O 27.9858 7.79846 0.794821
H 27.4792 8.22241 46.7733
H 28.6702 8.4549 0.566945
O 30.1202 9.67826 0.473528
H 30.1873 10.1786 -0.31641
H 30.9638 9.29558 0.525286
O 28.971 7.02547 8.33079
H 28.1465 6.82297 8.78654
H 28.829 6.71055 7.44266
O 28.4636 2.8436 5.78529
H 29.2826 2.4994 6.13879
H 27.6996 2.90385 6.40077
O 28.2343 5.87748 5.7041
H 28.3322 4.93154 5.7033
H 28.6111 6.09951 4.86586
O 30.2426 41.6705 0.845317
H 30.6607 40.797 0.912493
H 30.1335 41.8862 45.1097
O 30.4604 1.62942 7.30423
H 31.2715 2.07876 7.54366
H 30.5566 0.720554 7.54249
O 25.5087 5.35931 7.25068
H 24.5399 5.44139 7.13058
H 25.8478 5.99415 6.60951
O 24.7984 3.91015 0.208089
H 24.9797 2.99181 0.264383
H 25.6105 4.34896 0.162469
O 27.2072 5.30336 44.5227
H 26.613 5.6269 43.8298
H 27.2485 6.0512 -0.0696091
O 30.1143 43.8511 2.52763
H 30.8835 43.9361 3.06233
H 30.1188 42.9315 2.07216
O 29.1848 40.5984 43.3132
H 28.7496 41.164 42.6081
H 29.5817 39.8833 42.8219
O 35.5501 36.5849 19.333
H 35.1801 37.3491 19.7937
H 36.3258 37.0149 18.8933
O 31.2456 8.7962 9.14348
H 30.5735 8.10266 9.05894
H 31.7813 8.73746 8.36347
O 26.2741 2.91631 7.5167
H 26.0279 3.83846 7.30064
H 26.5398 2.92128 8.40903
    
    &END COORD
  &END SUBSYS
  &DFT
    BASIS_SET_FILE_NAME  BASIS_SET
    POTENTIAL_FILE_NAME  GTH_POTENTIALS
    &QS
      EPS_DEFAULT 1.0E-10
    &END QS
    &MGRID
      NGRIDS 4
      CUTOFF 135
      REL_CUTOFF 115
    &END MGRID
    &XC
      &XC_FUNCTIONAL PADE
      &END XC_FUNCTIONAL
    &END XC
    &SCF
      SCF_GUESS ATOMIC
      EPS_SCF 1.0E-7
      MAX_SCF 300
      &DIAGONALIZATION  ON
        ALGORITHM STANDARD
      &END DIAGONALIZATION
      &MIXING  T
        METHOD BROYDEN_MIXING
        ALPHA 0.4
        NBROYDEN 8
      &END MIXING
    &END SCF
  &END DFT
  &PRINT
    &FORCES ON
    &END FORCES
  &END PRINT
&END FORCE_EVAL
