&GLOBAL
  PROJECT H2O_bulk
  RUN_TYPE ENERGY_FORCE
  PRINT_LEVEL LOW
&END GLOBAL
&FORCE_EVAL
  METHOD Quickstep
  &SUBSYS
    &KIND H
      ELEMENT   H
      BASIS_SET DZVP-GTH-PBE
      POTENTIAL GTH-PBE-q1
    &END KIND
    &KIND O
      ELEMENT   O
      BASIS_SET DZVP-GTH-PBE
      POTENTIAL GTH-PBE-q6
    &END KIND
    &CELL
      A     46.937    0.000000000    0.000000000
      B     0.000000000    44.121    0.000000000
      C     0.000000000    0.000000000    45.182
    &END CELL
    &COORD

O 46.9904 0.520384 3.09984
H 46.1645 0.166047 3.21702
H 46.9192 1.49346 3.13303
O 4.45557 3.00446 44.1952
H 4.97417 3.18526 43.417
H 3.76515 3.64237 44.0222
O 5.34171 2.20108 1.60701
H 4.73585 1.5274 1.94255
H 5.10642 2.32616 0.693958
O 4.27471 5.42585 2.76789
H 4.8389 5.32985 3.57026
H 4.24781 4.55862 2.30138
O 46.8107 3.18271 3.87073
H 0.677103 3.67345 3.87924
H 46.0998 3.87675 3.72989
O 4.30624 8.03243 0.950852
H 4.4817 7.12985 1.115
H 5.17545 8.43316 0.749217
O 5.22665 4.5527 41.8576
H 5.87343 5.23224 41.8914
H 5.31261 4.37004 40.9318
O 1.27339 5.89946 4.05966
H 2.21838 5.84348 3.77991
H 1.05596 6.82977 3.99013
O 1.95963 9.17433 45.1808
H 2.77854 9.00236 0.521804
H 1.97725 8.61949 44.4389
O 7.19555 8.83607 0.131724
H 7.05062 9.49527 44.6302
H 7.92325 9.19074 0.705236
O 21.3145 29.1543 32.0144
H 20.407 28.9095 32.0562
H 21.2424 30.1087 32.0658
O 2.10714 43.2553 4.05799
H 1.98524 43.4685 5.00312
H 1.39339 43.7008 3.60445
O 4.38202 43.8178 2.60914
H 5.26449 43.4551 2.92309
H 3.70725 43.5902 3.28943
O 15.6504 42.8157 7.46802
H 16.151 42.1707 7.98488
H 16.2939 43.4925 7.16514
O 5.56181 5.0295 5.61046
H 4.97891 5.05506 6.34519
H 6.28873 4.52187 5.91061
O 44.1094 21.9002 37.0575
H 43.942 22.792 36.6466
H 43.1974 21.4888 37.0063
O 13.3544 1.00261 1.24323
H 13.4585 0.203003 1.74531
H 14.1616 1.25435 0.804876
O 11.0689 4.90464 43.8412
H 10.9626 5.72147 44.3308
H 11.8564 4.97834 43.3153
O 15.9104 6.27244 5.04513
H 15.5889 7.19551 5.03791
H 15.13 5.73628 5.22395
O 13.3132 4.39957 5.03197
H 12.4235 4.87472 5.08546
H 13.3153 3.92745 4.19535
O 8.70386 1.22458 6.86436
H 7.98044 0.867449 7.38372
H 9.48193 1.01292 7.36509
O 8.4227 2.93718 2.3365
H 9.01702 2.84227 1.61816
H 7.5495 2.54291 2.1192
O 13.5875 41.7172 5.64034
H 14.383 42.0573 6.12902
H 12.8314 41.7678 6.25255
O 14.8782 3.14843 7.03962
H 14.2957 3.50013 6.29565
H 14.8034 3.8211 7.75072
O 8.93213 3.22545 5.11324
H 8.72894 2.55944 5.80573
H 8.66058 2.74492 4.31326
O 12.4973 3.63704 2.31536
H 12.5764 2.74373 2.00556
H 11.5394 3.8984 2.21917
O 10.7926 2.46875 -0.0273367
H 10.9906 3.28522 44.689
H 11.5192 1.88599 45.3985
O 13.2068 42.4164 2.84081
H 13.1275 41.5587 2.45962
H 13.375 42.2461 3.76268
O 17.1758 1.03788 6.96905
H 17.7719 1.11321 6.26374
H 16.6498 1.85767 6.94268
O 13.3066 0.756223 8.35033
H 13.8697 0.0773003 7.92868
H 13.7038 1.59878 8.04963
O 10.753 5.29598 4.72106
H 10.3672 6.16428 4.87579
H 10.128 4.56184 4.9822
O 10.6878 0.469451 8.75887
H 11.6012 0.52969 8.52614
H 10.595 -0.0465334 9.53842
O 18.6547 1.31928 4.81499
H 19.1218 2.17229 4.79684
H 19.1326 0.686802 4.3266
O 16.6334 7.3587 44.6911
H 16.0693 7.99319 0.0314012
H 17.1776 6.82477 45.2929
O 24.6976 4.44489 4.01371
H 24.1997 4.99517 3.38358
H 25.6593 4.5266 3.82077
O 22.7104 2.996 5.48974
H 23.5603 3.22826 5.04103
H 22.8118 2.14978 5.95418
O 21.7463 0.111672 10.1146
H 21.9574 43.9182 10.9877
H 22.4056 -0.242034 9.53363
O 19.4683 3.97943 5.16621
H 19.4969 3.97568 6.12174
H 20.3721 4.06033 4.8754
O 18.4523 9.31653 43.7049
H 18.1373 9.53578 42.8225
H 17.8086 8.64261 44.0431
O 22.9522 44.0361 7.68303
H 23.9112 44.2938 7.75765
H 23.0086 43.1709 7.2514
O 19.7865 3.76992 8.01627
H 19.659 2.85394 8.36365
H 19.2264 4.29254 8.57594
O 17.6519 5.09788 3.26489
H 16.9895 5.53986 3.79518
H 18.1487 4.55024 3.88486
O 18.2589 5.40125 0.50402
H 18.1123 5.16958 1.45701
H 17.9675 4.57146 0.0619713
O 19.7764 11.6819 44.9719
H 18.8482 11.4634 44.9409
H 20.145 11.0514 44.3389
O 27.5238 42.638 6.66688
H 27.6363 43.1084 5.7934
H 28.3423 42.2993 6.96498
O 25.5579 0.408357 7.87988
H 26.0766 1.14954 8.19659
H 26.1345 43.8547 7.62535
O 22.7679 4.58864 7.65199
H 21.9217 4.86279 7.94818
H 22.5579 3.99988 6.89331
O 19.4039 1.28073 9.29587
H 18.9831 0.761957 8.58274
H 20.1388 0.768144 9.51194
O 28.0486 44.1719 4.43766
H 27.7144 44.3831 3.5288
H 28.4701 0.785335 4.90939
O 24.9606 8.90112 43.5189
H 24.2095 8.97761 42.851
H 25.4923 9.54164 43.0986
O 26.1024 10.4603 41.4066
H 26.2035 10.238 40.4774
H 26.3101 11.4191 41.4313
O 28.6577 7.31678 6.35359
H 27.847 6.97868 6.72635
H 29.1733 6.58975 5.94556
O 29.239 2.26185 5.79401
H 30.0396 1.9948 6.28183
H 28.6643 2.33432 6.54069
O 30.0491 4.99167 5.20458
H 29.5656 4.1478 5.228
H 30.4498 5.11104 4.35051
O 24.7073 41.9739 0.596443
H 24.8682 41.2188 1.05063
H 24.5938 41.5326 -0.256036
O 30.9922 1.72701 8.21078
H 31.58 2.28004 8.71812
H 31.1347 0.874421 8.65011
O 25.2981 5.20875 8.84786
H 24.4984 5.03076 8.38628
H 25.162 5.60842 9.73394
O 23.9275 6.70045 2.32539
H 23.6774 7.54317 2.63868
H 24.4084 7.00363 1.57621
O 25.6967 7.30118 0.412074
H 26.5308 6.91829 0.399279
H 25.4913 7.86898 44.875
O 26.8029 0.0441318 1.70684
H 26.2046 43.3813 1.52085
H 26.6764 0.583503 0.94754
O 24.8936 39.2473 44.1956
H 25.7305 38.8064 44.4124
H 25.0694 39.5076 43.2769
O 32.3719 28.3964 31.2216
H 32.9149 28.5173 30.4586
H 32.4763 27.4798 31.3657
O 27.9799 9.83548 5.21019
H 28.2475 8.8714 5.33616
H 27.8211 9.87754 4.28506
O 26.9521 2.93695 8.3971
H 26.3627 3.64866 8.66856
H 27.7295 3.08763 9.00992
    
    &END COORD
  &END SUBSYS
  &DFT
    BASIS_SET_FILE_NAME  BASIS_SET
    POTENTIAL_FILE_NAME  GTH_POTENTIALS
    &QS
      EPS_DEFAULT 1.0E-10
    &END QS
    &MGRID
      NGRIDS 4
      CUTOFF 135
      REL_CUTOFF 115
    &END MGRID
    &XC
      &XC_FUNCTIONAL PADE
      &END XC_FUNCTIONAL
    &END XC
    &SCF
      SCF_GUESS ATOMIC
      EPS_SCF 1.0E-7
      MAX_SCF 300
      &DIAGONALIZATION  ON
        ALGORITHM STANDARD
      &END DIAGONALIZATION
      &MIXING  T
        METHOD BROYDEN_MIXING
        ALPHA 0.4
        NBROYDEN 8
      &END MIXING
    &END SCF
  &END DFT
  &PRINT
    &FORCES ON
    &END FORCES
  &END PRINT
&END FORCE_EVAL
