&GLOBAL
  PROJECT H2O_bulk
  RUN_TYPE ENERGY_FORCE
  PRINT_LEVEL LOW
&END GLOBAL
&FORCE_EVAL
  METHOD Quickstep
  &SUBSYS
    &KIND H
      ELEMENT   H
      BASIS_SET DZVP-GTH-PBE
      POTENTIAL GTH-PBE-q1
    &END KIND
    &KIND O
      ELEMENT   O
      BASIS_SET DZVP-GTH-PBE
      POTENTIAL GTH-PBE-q6
    &END KIND
    &CELL
      A     46.937    0.000000000    0.000000000
      B     0.000000000    44.121    0.000000000
      C     0.000000000    0.000000000    45.182
    &END CELL
    &COORD

O 46.9199 0.517872 2.96144
H 46.0539 0.521016 3.27461
H 47.0437 1.4457 3.27447
O 4.48323 3.04204 44.2785
H 5.17741 3.04924 43.6205
H 3.80717 3.61188 43.9118
O 5.41319 2.2204 1.64624
H 5.24164 1.30516 1.84932
H 4.97406 2.483 0.822468
O 4.22362 5.45207 2.84911
H 4.63201 5.49421 3.71266
H 4.47325 4.58373 2.46988
O 46.7111 3.22117 3.76231
H 0.317108 3.8399 4.1587
H 46.0374 3.81888 3.3517
O 4.28169 8.05356 1.13262
H 4.43628 7.41145 1.79607
H 5.11761 8.52415 0.970413
O 5.25976 4.5382 41.7119
H 5.8497 5.25511 41.7525
H 5.24647 4.38435 40.7547
O 1.19863 5.73185 4.06052
H 2.05722 5.74695 3.62807
H 0.508392 6.35876 3.91549
O 1.85245 9.18639 45.1569
H 2.54688 8.61914 0.392646
H 1.4223 8.64027 44.5474
O 7.221 8.78961 0.346654
H 7.23728 9.38427 44.7678
H 8.1437 8.9456 0.691668
O 21.6108 28.8937 32.1678
H 20.6692 28.8634 32.2357
H 21.7181 29.8407 32.0654
O 2.16991 43.1532 4.00661
H 2.18049 43.3927 4.96135
H 1.36431 43.6195 3.73222
O 4.4577 43.8275 2.55067
H 5.0172 43.3496 3.23382
H 3.56732 43.7422 2.97319
O 15.688 42.8943 7.55364
H 16.1396 42.4574 8.27157
H 16.1716 43.7154 7.27906
O 5.56098 5.01917 5.46119
H 5.24485 5.14198 6.3312
H 6.27159 4.40201 5.51849
O 43.9817 22.2017 36.74
H 44.0703 22.9825 36.2707
H 43.3862 21.7111 36.1687
O 13.489 1.08746 1.26469
H 13.2562 0.257664 1.67768
H 14.4343 1.0643 1.05035
O 11.147 4.92657 43.9155
H 10.8887 5.59323 44.5378
H 11.7236 5.42255 43.3533
O 15.9249 6.21204 5.16677
H 15.7762 7.19306 5.10753
H 15.0826 5.868 4.80181
O 13.3416 4.38304 5.04403
H 12.4852 4.74853 5.24999
H 13.1081 4.03336 4.16262
O 8.60849 1.23223 7.11069
H 7.83514 0.663319 7.12084
H 9.15262 1.04026 7.87072
O 8.40257 2.8564 2.26748
H 8.9272 2.53421 1.58682
H 7.49288 2.78178 2.03497
O 13.5495 41.6095 5.53245
H 14.2012 41.9956 6.15617
H 12.6876 41.5273 5.95773
O 14.8434 3.24097 7.16206
H 14.3215 3.65419 6.49689
H 15.2281 3.97225 7.65896
O 8.73181 3.25482 5.2552
H 8.89774 2.48633 5.81322
H 8.74942 3.13521 4.28615
O 12.4316 3.70893 2.28365
H 12.7637 2.90901 2.02882
H 11.6424 3.68541 1.69387
O 10.7163 2.61073 -0.0155688
H 10.8492 3.30506 44.4976
H 11.4321 1.92645 45.2039
O 13.1203 42.4063 3.02783
H 12.9668 41.5196 2.77222
H 13.3418 42.2542 3.91992
O 17.1197 0.965372 6.8205
H 17.6502 0.981088 5.96394
H 16.4279 1.65147 6.7462
O 13.3911 0.801538 8.40087
H 13.9977 0.0918645 8.5444
H 13.8723 1.49097 7.99113
O 10.8333 5.34855 4.87465
H 10.547 6.22164 5.15252
H 10.0653 4.77675 5.04263
O 10.4853 0.536359 8.83744
H 11.405 0.789137 8.80406
H 10.3847 0.360531 9.76242
O 18.7795 1.34499 4.65725
H 19.067 2.29431 4.79927
H 19.5869 0.886933 4.78154
O 16.6254 7.29312 44.6484
H 16.1213 7.76488 0.178221
H 17.1347 6.65926 45.1369
O 24.5868 4.29177 3.99057
H 24.5348 5.22784 3.68769
H 25.4765 3.95153 3.74731
O 22.6251 2.86152 5.51396
H 23.2377 3.23774 4.89115
H 22.9503 1.96046 5.6848
O 21.6777 0.120302 10.1487
H 21.9443 43.4037 10.5423
H 21.9839 0.00347564 9.1945
O 19.5278 3.97159 5.17875
H 19.4953 3.97376 6.15769
H 20.441 4.26034 5.01875
O 18.4482 9.1981 43.6315
H 18.9248 8.95575 42.8414
H 17.8258 8.52525 43.9212
O 22.9054 43.9333 7.62322
H 23.8529 44.1547 7.73421
H 22.9476 43.0929 7.15817
O 19.6931 3.73276 7.92142
H 19.7518 2.83788 8.33457
H 19.0628 4.27473 8.37131
O 17.6803 5.11105 3.3021
H 17.0379 5.63438 3.76859
H 18.3406 4.85355 3.98331
O 18.3682 5.33641 0.479059
H 18.2619 5.28368 1.44718
H 17.6844 4.73192 0.142383
O 19.863 11.6476 44.8495
H 19.2092 10.9362 44.8655
H 20.415 11.1222 44.2505
O 27.4485 42.6996 6.73355
H 27.6876 43.0158 5.87159
H 28.2 42.2898 7.0871
O 25.5742 0.26112 8.01554
H 25.8301 1.23348 8.02089
H 26.1862 43.806 7.61402
O 22.811 4.50977 7.7116
H 22.1156 4.02129 8.10146
H 22.9578 4.00732 6.87705
O 19.4699 1.34401 9.33838
H 18.6753 0.764957 9.15696
H 20.1717 0.732702 9.61885
O 28.0451 44.1639 4.38968
H 27.4854 44.1599 3.58868
H 28.5478 0.811002 4.45492
O 25.0529 8.98711 43.4534
H 24.3296 8.89773 42.7582
H 25.6928 9.60251 43.1747
O 26.1816 10.5178 41.327
H 26.4382 9.90187 40.5963
H 26.3309 11.4065 40.8585
O 28.658 7.29593 6.36106
H 27.7971 6.99201 6.56451
H 29.0504 6.56564 5.91246
O 29.3143 2.18831 5.74201
H 29.9211 1.88888 6.46995
H 28.5852 2.53675 6.21788
O 30.0054 5.13292 5.16008
H 30.0153 4.12578 5.40221
H 30.2377 5.26862 4.21498
O 24.7792 42.0244 0.631884
H 25.329 41.2965 0.875508
H 24.4292 41.6657 -0.217663
O 30.869 1.68699 8.1635
H 31.3184 2.36742 8.65368
H 31.1977 0.864585 8.52994
O 25.2526 5.2617 8.88215
H 24.317 5.09473 8.5224
H 25.0846 6.10456 9.38438
O 23.9056 6.67901 2.36084
H 23.8251 7.55335 2.69567
H 24.6825 6.78028 1.72584
O 25.7465 7.45292 0.504702
H 26.4602 6.9123 0.210553
H 25.2786 7.8115 44.8508
O 26.8867 0.06677 1.42197
H 26.1498 43.5624 1.1147
H 26.5178 0.904034 1.23158
O 24.9469 39.2173 44.2276
H 25.4633 38.4427 44.5088
H 25.3385 39.3457 43.3266
O 32.5172 28.5643 30.9841
H 33.2449 28.0897 30.558
H 31.907 27.8621 31.2156
O 27.972 9.8517 5.36431
H 28.3558 9.05281 5.77896
H 28.1592 9.74282 4.46195
O 26.8572 3.02982 8.36476
H 26.3349 3.84366 8.59918
H 27.5142 2.92294 9.09537
    
    &END COORD
  &END SUBSYS
  &DFT
    BASIS_SET_FILE_NAME  BASIS_SET
    POTENTIAL_FILE_NAME  GTH_POTENTIALS
    &QS
      EPS_DEFAULT 1.0E-10
    &END QS
    &MGRID
      NGRIDS 4
      CUTOFF 135
      REL_CUTOFF 115
    &END MGRID
    &XC
      &XC_FUNCTIONAL PADE
      &END XC_FUNCTIONAL
    &END XC
    &SCF
      SCF_GUESS ATOMIC
      EPS_SCF 1.0E-7
      MAX_SCF 300
      &DIAGONALIZATION  ON
        ALGORITHM STANDARD
      &END DIAGONALIZATION
      &MIXING  T
        METHOD BROYDEN_MIXING
        ALPHA 0.4
        NBROYDEN 8
      &END MIXING
    &END SCF
  &END DFT
  &PRINT
    &FORCES ON
    &END FORCES
  &END PRINT
&END FORCE_EVAL
