&GLOBAL
  PROJECT H2O_bulk
  RUN_TYPE ENERGY_FORCE
  PRINT_LEVEL LOW
&END GLOBAL
&FORCE_EVAL
  METHOD Quickstep
  &SUBSYS
    &KIND H
      ELEMENT   H
      BASIS_SET DZVP-GTH-PBE
      POTENTIAL GTH-PBE-q1
    &END KIND
    &KIND O
      ELEMENT   O
      BASIS_SET DZVP-GTH-PBE
      POTENTIAL GTH-PBE-q6
    &END KIND
    &CELL
      A     46.937    0.000000000    0.000000000
      B     0.000000000    44.121    0.000000000
      C     0.000000000    0.000000000    45.182
    &END CELL
    &COORD

O 46.8389 0.687117 3.37285
H 45.9573 0.45905 3.39862
H 0.0652999 1.62962 3.59103
O 4.23618 2.6492 44.1987
H 4.54619 3.3405 43.5719
H 3.40603 2.29219 43.9057
O 5.39362 2.5789 1.58606
H 4.96148 1.88621 2.11606
H 4.9683 2.51503 0.703826
O 4.51456 5.13463 2.94988
H 5.06772 5.27447 3.72966
H 4.75388 4.31201 2.58099
O 0.153293 3.59245 4.32552
H 0.673102 4.32848 3.99841
H 47.3695 3.6614 5.26727
O 4.65298 7.64537 0.419864
H 4.53387 6.95088 1.039
H 5.61288 7.80131 0.438195
O 5.23682 4.66106 42.1437
H 5.94463 5.36338 42.2938
H 5.26162 4.604 41.212
O 1.89754 5.92938 3.77316
H 2.72124 5.4629 3.57103
H 1.93615 6.85027 3.86728
O 2.24525 9.33397 45.1247
H 3.10916 8.97695 -0.226632
H 1.68178 9.11839 44.4112
O 7.00053 9.10163 44.6713
H 6.9508 9.02579 43.7415
H 7.53894 9.85427 -0.341332
O 20.1302 30.1899 31.4221
H 19.7307 29.3427 31.3467
H 19.4545 30.6331 31.9659
O 2.23401 43.3595 4.44064
H 2.06482 43.619 5.34213
H 1.50142 43.6281 3.92395
O 4.41464 44.1053 2.63968
H 4.86695 43.3712 2.13038
H 3.75509 43.7431 3.2425
O 15.6979 42.7439 7.37055
H 15.9182 42.2167 8.16798
H 16.2269 43.5627 7.49813
O 5.54303 5.12489 5.653
H 5.11427 4.4981 6.29016
H 6.47621 4.88501 5.69359
O 44.3922 20.7354 38.386
H 44.2009 21.6405 38.1691
H 45.1305 20.818 38.8346
O 12.7676 0.727202 1.23022
H 13.158 -0.0654545 1.71889
H 13.3836 0.767189 0.518852
O 11.0562 4.76675 43.3693
H 11.1505 5.60536 43.8532
H 10.3799 4.94296 42.7175
O 15.5427 6.30558 4.59549
H 15.1616 7.16088 4.43745
H 14.7939 5.67683 4.53112
O 13.5776 4.63622 4.9695
H 12.6856 5.05655 4.99652
H 13.3557 3.99944 4.27664
O 9.16414 0.997987 6.40047
H 8.65333 0.542624 7.07398
H 10.0194 0.974242 6.84405
O 8.16716 2.78436 1.89947
H 8.84793 2.41079 1.34591
H 7.32328 2.72111 1.51848
O 13.4655 42.0384 5.12871
H 14.1817 41.9813 5.75037
H 12.7236 41.495 5.46808
O 14.7041 2.86822 6.75232
H 14.1374 3.30265 6.02851
H 14.6243 3.54258 7.45486
O 8.88155 3.10031 4.64181
H 9.15189 2.30341 5.08952
H 8.61297 2.75357 3.77038
O 12.9239 3.13511 2.72555
H 12.9757 2.30494 2.37621
H 12.2327 3.60048 2.20064
O 10.4153 2.07929 0.484115
H 10.6362 2.5363 44.8536
H 10.9784 1.32392 0.718122
O 13.666 42.5762 2.44832
H 13.174 41.8141 2.14372
H 13.5987 42.5443 3.41879
O 17.0172 0.942955 7.42889
H 17.4315 1.11963 6.54605
H 16.3678 1.63289 7.54721
O 13.6146 0.562675 8.113
H 14.1439 -0.209707 7.87463
H 13.9577 1.24144 7.56906
O 11.1457 5.28274 4.29944
H 10.5501 6.01523 4.40803
H 10.5813 4.51314 4.34947
O 10.8625 0.0831113 8.37079
H 11.8595 0.245415 8.34833
H 10.679 43.3474 8.71694
O 18.2547 1.19467 5.07068
H 19.0188 1.82079 5.17688
H 17.8597 1.40044 4.22085
O 16.7686 7.80996 44.6791
H 15.8562 8.073 44.956
H 16.973 6.96941 45.1124
O 24.8156 4.83626 4.1069
H 24.4717 5.37026 3.34229
H 25.4714 5.39237 4.58857
O 22.6988 3.58623 5.18405
H 23.5323 3.95572 4.79867
H 22.9218 2.75696 5.52649
O 21.5798 0.115766 10.1197
H 21.9164 0.663016 10.8189
H 22.2427 0.166458 9.44284
O 19.9414 3.58833 5.40141
H 19.911 3.83454 6.3252
H 20.8672 3.68548 5.099
O 18.0953 10.038 43.8706
H 18.4255 9.94505 42.9779
H 17.6712 9.16473 43.9789
O 23.3092 0.246662 7.71195
H 24.2905 0.330016 7.65224
H 23.0621 43.5461 7.26222
O 20.0618 4.104 8.23706
H 19.8515 3.26909 8.70022
H 19.3426 4.675 8.51817
O 17.633 5.01169 3.51314
H 16.907 5.47562 3.90993
H 18.3656 4.98917 4.09333
O 17.7784 5.40863 0.523566
H 17.7961 5.25866 1.4763
H 18.7028 5.65855 0.269099
O 19.4128 11.8655 0.273084
H 19.3993 12.8008 0.334256
H 18.6804 11.5254 44.9782
O 27.3849 42.579 6.53158
H 27.8247 43.1516 5.77372
H 28.163 42.1577 6.87505
O 25.8985 0.546437 7.3628
H 26.5081 1.16644 7.78812
H 26.3571 43.8717 7.32375
O 22.883 5.21193 7.7651
H 21.9679 5.02029 8.09462
H 22.9038 4.59517 7.0175
O 19.5122 1.54861 9.12165
H 18.7802 1.1304 8.76308
H 20.047 0.831226 9.51049
O 28.2753 44.0102 4.42773
H 27.5214 -0.0585109 3.8364
H 28.5833 0.812584 4.64645
O 24.495 8.64044 43.5583
H 23.6246 8.74176 43.1169
H 24.9849 9.18613 42.9507
O 25.8486 10.503 41.7284
H 25.498 10.4272 40.8358
H 26.7109 10.8827 41.6274
O 28.734 7.27451 6.05193
H 29.0954 7.47922 6.92239
H 29.1267 6.44892 5.8237
O 29.0779 2.54847 6.5663
H 29.7915 2.17717 7.02928
H 28.4258 2.81084 7.22148
O 30.0619 5.0153 5.40977
H 29.8517 4.17456 5.82205
H 30.0415 4.86978 4.51873
O 24.7449 41.9601 0.815879
H 25.0514 42.6091 0.167165
H 25.1009 41.0349 0.454884
O 31.3265 1.89015 8.17568
H 32.1992 2.01829 7.84823
H 31.4199 1.15551 8.80052
O 25.3662 4.56674 8.81304
H 24.4305 4.59262 8.72522
H 25.6866 5.39476 8.4143
O 23.8796 6.66369 2.17903
H 23.6251 7.51013 2.54981
H 24.4942 6.96093 1.54796
O 25.6363 6.72153 0.171478
H 26.4589 7.04168 -0.0208539
H 25.026 7.18431 44.7987
O 26.2423 43.7047 2.38411
H 25.3283 43.4631 2.47073
H 26.524 43.0255 1.78669
O 24.786 39.6018 44.0803
H 25.2403 39.2832 43.2508
H 24.1549 38.9368 44.2448
O 31.9905 27.7355 31.9856
H 31.3711 27.5769 32.7037
H 31.9946 28.6724 31.9188
O 28.0367 9.68534 4.63416
H 28.5871 9.00612 4.98245
H 27.2529 9.23688 4.79831
O 27.3869 2.89904 8.53231
H 26.587 3.52882 8.5305
H 27.7527 3.08345 9.43558
    
    &END COORD
  &END SUBSYS
  &DFT
    BASIS_SET_FILE_NAME  BASIS_SET
    POTENTIAL_FILE_NAME  GTH_POTENTIALS
    &QS
      EPS_DEFAULT 1.0E-10
    &END QS
    &MGRID
      NGRIDS 4
      CUTOFF 135
      REL_CUTOFF 115
    &END MGRID
    &XC
      &XC_FUNCTIONAL PADE
      &END XC_FUNCTIONAL
    &END XC
    &SCF
      SCF_GUESS ATOMIC
      EPS_SCF 1.0E-7
      MAX_SCF 300
      &DIAGONALIZATION  ON
        ALGORITHM STANDARD
      &END DIAGONALIZATION
      &MIXING  T
        METHOD BROYDEN_MIXING
        ALPHA 0.4
        NBROYDEN 8
      &END MIXING
    &END SCF
  &END DFT
  &PRINT
    &FORCES ON
    &END FORCES
  &END PRINT
&END FORCE_EVAL
