&GLOBAL
  PROJECT H2O_bulk
  RUN_TYPE ENERGY_FORCE
  PRINT_LEVEL LOW
&END GLOBAL
&FORCE_EVAL
  METHOD Quickstep
  &SUBSYS
    &KIND H
      ELEMENT   H
      BASIS_SET DZVP-GTH-PBE
      POTENTIAL GTH-PBE-q1
    &END KIND
    &KIND O
      ELEMENT   O
      BASIS_SET DZVP-GTH-PBE
      POTENTIAL GTH-PBE-q6
    &END KIND
    &CELL
      A     46.937    0.000000000    0.000000000
      B     0.000000000    44.121    0.000000000
      C     0.000000000    0.000000000    45.182
    &END CELL
    &COORD

O 46.9005 0.426154 2.97496
H 46.71 0.317776 2.00107
H 46.7686 1.31649 3.29598
O 4.78793 3.29614 44.1893
H 5.46943 3.49544 43.5747
H 4.15573 2.9545 43.5602
O 5.40449 2.60628 1.69649
H 5.20384 1.66345 1.84081
H 5.23221 2.76824 0.794722
O 3.86328 5.33162 3.28069
H 4.53586 5.29253 4.02772
H 3.95073 4.46416 2.87003
O 45.9012 3.1393 2.94933
H 46.4368 3.79646 3.32035
H 45.0144 3.53044 2.91201
O 3.98147 8.29514 1.86753
H 3.73534 7.57923 2.45718
H 4.95846 8.24706 1.74856
O 5.27531 4.20228 41.4735
H 5.65081 5.00633 41.2695
H 5.2719 3.70687 40.6285
O 1.057 4.89495 3.90998
H 1.99567 4.70489 3.64347
H 1.15179 5.64777 4.55954
O 1.68432 9.07064 0.0821958
H 2.38892 8.83467 0.728078
H 1.47308 8.22679 44.9761
O 6.97481 8.51341 1.49638
H 7.12823 8.53803 0.566309
H 7.84624 8.76123 1.77779
O 23.0803 27.6288 32.9326
H 22.7023 28.5178 33.0187
H 23.7786 27.8295 32.3099
O 2.28109 43.164 3.30711
H 2.5113 42.6532 4.11646
H 1.4421 43.666 3.42097
O 4.758 -0.108297 2.34319
H 5.29772 43.1819 2.34752
H 3.96586 43.8486 2.93067
O 15.1084 43.1395 7.61578
H 15.774 42.7234 8.13723
H 15.6651 43.7424 7.1202
O 5.77278 5.11979 5.02399
H 6.10357 5.93704 5.35
H 6.55509 4.48852 5.05204
O 43.4713 23.7359 34.8679
H 43.0659 23.7334 35.7991
H 43.8764 22.8027 34.8402
O 13.6757 1.04922 1.67448
H 13.3805 0.379206 2.2829
H 14.6161 0.825772 1.61327
O 11.3502 5.43116 44.0515
H 12.3168 5.47516 43.9217
H 11.1284 6.07366 43.3389
O 15.8505 5.7608 5.32121
H 15.9344 6.71012 5.11482
H 14.9292 5.55752 5.14729
O 13.257 4.62986 4.82722
H 12.4526 4.98602 5.26531
H 13.0721 4.11492 4.00095
O 7.87452 1.65511 7.41938
H 7.29251 0.949582 7.69609
H 8.64965 1.46906 7.89349
O 8.34114 2.49023 2.8002
H 8.93406 2.76013 2.05247
H 7.52818 2.50912 2.32799
O 13.7395 41.2231 5.85163
H 14.0557 41.6477 6.66358
H 13.7077 40.2973 6.03096
O 14.8581 3.06231 6.97566
H 14.2701 3.2696 6.24869
H 15.2825 3.87939 7.12753
O 8.17596 3.57158 5.03316
H 8.08881 2.85182 5.68422
H 8.39218 3.15341 4.14448
O 13.0839 3.34133 2.50975
H 13.3811 2.50803 2.21522
H 12.2765 3.57046 2.10355
O 10.4425 3.04752 0.731919
H 10.434 3.68263 0.0338418
H 10.792 2.30878 0.18832
O 12.7941 43.0479 2.9965
H 12.1485 42.4695 2.58279
H 13.1027 42.681 3.86738
O 16.6456 0.828461 6.17098
H 17.3699 0.835927 5.4832
H 16.1994 1.68281 6.14912
O 13.2187 1.05126 8.95108
H 13.6105 0.298461 8.44313
H 13.8399 1.79455 8.78436
O 10.68 5.25792 6.09659
H 10.2375 5.88481 6.67984
H 9.9007 4.9008 5.64156
O 10.6182 1.0142 9.65944
H 11.524 1.16921 9.56479
H 10.4683 0.360751 10.3132
O 18.9697 1.19518 4.46735
H 19.3393 2.0657 4.62071
H 19.2302 0.993395 3.59319
O 16.9237 7.0895 44.3802
H 16.1719 6.63251 44.0349
H 17.3219 6.45329 45.0207
O 23.8618 3.6032 3.52858
H 24.1646 4.54706 3.56854
H 24.4029 3.34081 2.78062
O 22.3248 2.52766 5.49233
H 23.1226 2.70616 4.90521
H 22.3387 1.60744 5.75753
O 21.3127 43.8318 9.6485
H 21.9466 44.2087 10.2594
H 21.8194 43.811 8.82773
O 20.0279 3.85577 4.97777
H 19.9657 3.84929 5.9508
H 20.9087 3.4902 4.77688
O 18.8707 8.81308 43.3064
H 19.4318 8.06742 43.0609
H 18.1279 8.40224 43.7877
O 23.0327 43.7805 7.47804
H 23.8355 -0.0513844 7.96217
H 23.0256 42.8366 7.42129
O 19.5059 3.95825 7.96108
H 19.3801 3.3215 8.6834
H 19.0784 4.76253 8.31815
O 18.2089 5.43607 3.62581
H 17.4639 5.3617 4.26989
H 18.9242 4.94011 4.04612
O 18.2098 5.07782 0.739898
H 17.927 5.18055 1.68457
H 19.13 5.02391 0.889736
O 20.1362 11.085 44.1162
H 20.05 10.1864 44.4344
H 19.6839 10.96 43.2925
O 27.0983 42.8857 6.37317
H 27.3882 43.1243 5.48069
H 27.3533 41.9914 6.45047
O 25.5344 0.245749 8.64852
H 25.9169 1.15892 8.57067
H 26.2272 43.9257 8.05377
O 22.564 4.15601 7.97836
H 21.7056 4.32244 8.29012
H 22.5371 3.58892 7.18123
O 19.3274 1.72791 9.79004
H 18.5971 1.13321 10.1409
H 20.0521 1.13007 9.58481
O 27.9434 43.8247 3.80401
H 27.8723 43.5429 2.84
H 28.4579 0.479001 3.65211
O 25.5171 9.28372 43.2689
H 24.5955 9.47016 42.8674
H 26.0188 9.87642 42.7305
O 26.6625 10.618 40.8317
H 27.4759 10.9337 40.4273
H 26.0335 10.9686 40.2166
O 28.5377 7.20171 6.46312
H 29.3264 7.14115 6.92305
H 28.6608 6.53687 5.85939
O 29.1243 2.78171 5.72093
H 29.5791 2.3261 6.4404
H 28.1871 2.55241 5.82092
O 29.9182 5.30783 4.92143
H 29.6776 4.41024 5.27781
H 30.0351 5.00773 3.9458
O 25.4183 41.9638 0.521626
H 25.4025 41.145 45.2077
H 24.8695 41.8697 1.23303
O 30.7017 1.51301 8.03119
H 30.5618 1.64892 8.9882
H 30.9039 0.590764 7.94057
O 25.1715 5.27417 8.8542
H 24.3066 4.94559 8.60427
H 25.3275 5.96151 8.21798
O 24.2806 6.40374 2.75388
H 23.4543 6.84026 2.61551
H 25.0016 6.95798 2.34142
O 25.7309 7.88927 0.847304
H 26.6034 8.36022 0.9356
H 25.6376 8.12256 -0.100402
O 27.2391 44.2181 0.923389
H 26.6814 43.4545 0.554549
H 27.7593 44.5182 0.183422
O 25.1845 39.4379 44.5906
H 24.6924 38.7247 44.2646
H 26.02 39.0003 44.883
O 33.0691 29.183 29.9069
H 32.795 30.1022 29.7902
H 34.0163 29.2308 29.8333
O 28.0616 10.088 6.121
H 28.209 9.12796 6.27708
H 28.8628 10.5062 5.96448
O 26.5605 2.89831 8.23413
H 25.9996 3.64943 8.4122
H 27.2404 2.87184 8.82996
    
    &END COORD
  &END SUBSYS
  &DFT
    BASIS_SET_FILE_NAME  BASIS_SET
    POTENTIAL_FILE_NAME  GTH_POTENTIALS
    &QS
      EPS_DEFAULT 1.0E-10
    &END QS
    &MGRID
      NGRIDS 4
      CUTOFF 135
      REL_CUTOFF 115
    &END MGRID
    &XC
      &XC_FUNCTIONAL PADE
      &END XC_FUNCTIONAL
    &END XC
    &SCF
      SCF_GUESS ATOMIC
      EPS_SCF 1.0E-7
      MAX_SCF 300
      &DIAGONALIZATION  ON
        ALGORITHM STANDARD
      &END DIAGONALIZATION
      &MIXING  T
        METHOD BROYDEN_MIXING
        ALPHA 0.4
        NBROYDEN 8
      &END MIXING
    &END SCF
  &END DFT
  &PRINT
    &FORCES ON
    &END FORCES
  &END PRINT
&END FORCE_EVAL
