&GLOBAL
  PROJECT H2O_bulk
  RUN_TYPE ENERGY_FORCE
  PRINT_LEVEL LOW
&END GLOBAL
&FORCE_EVAL
  METHOD Quickstep
  &SUBSYS
    &KIND H
      ELEMENT   H
      BASIS_SET DZVP-GTH-PBE
      POTENTIAL GTH-PBE-q1
    &END KIND
    &KIND O
      ELEMENT   O
      BASIS_SET DZVP-GTH-PBE
      POTENTIAL GTH-PBE-q6
    &END KIND
    &CELL
      A     46.937    0.000000000    0.000000000
      B     0.000000000    44.121    0.000000000
      C     0.000000000    0.000000000    45.182
    &END CELL
    &COORD

O 3.45344 3.28863 6.57807
H 2.88737 3.30125 7.40832
H 3.18045 4.08522 6.13217
O 4.57903 0.949851 43.8162
H 3.82507 1.3488 43.4435
H 4.99133 0.477504 43.0674
O 5.80233 2.83111 0.478129
H 5.71706 2.1741 1.15519
H 5.30911 2.49948 -0.27627
O 5.10637 5.42538 1.08893
H 5.97684 5.12426 1.39373
H 4.77588 4.62315 0.658376
O 2.79818 5.25086 4.62617
H 3.6417 5.63844 4.34457
H 2.22504 6.03031 4.62848
O 3.26742 5.6683 42.8192
H 3.13489 6.0942 43.671
H 3.8694 6.30693 42.3447
O 2.77278 2.68199 42.6132
H 2.85988 3.61156 42.6393
H 1.88181 2.5647 42.8127
O 4.76473 6.82034 3.54528
H 5.72077 7.04891 3.65725
H 4.80232 6.48877 2.59671
O 7.67804 8.39954 42.2481
H 8.49963 8.46426 41.8181
H 7.65538 9.2212 42.6767
O 5.1075 7.68563 41.2986
H 6.07126 7.7083 41.5375
H 5.06039 8.10768 40.426
O 1.84185 0.980419 22.7239
H 2.68726 45.0433 22.2642
H 1.70174 44.2137 22.9956
O 4.96676 0.994115 5.24577
H 4.06233 0.91735 5.48619
H 5.27069 1.48623 5.99673
O 5.89644 1.13108 2.74656
H 6.88639 1.03363 2.64271
H 5.61037 1.49609 3.62991
O 18.0442 42.3398 1.14566
H 18.8969 41.9888 1.14087
H 18.1316 43.0011 1.83018
O 8.09029 7.21578 3.1324
H 8.41261 7.76217 3.86008
H 8.76093 6.5542 3.01104
O 3.23047 5.23411 14.684
H 3.64461 5.27594 15.6477
H 2.76078 6.10685 14.6378
O 11.1134 41.9421 1.69325
H 11.925 41.5372 1.4476
H 10.4363 41.299 1.53743
O 10.9469 43.1144 43.1209
H 10.0967 42.6947 42.8843
H 11.3413 43.1089 42.2469
O 14.8149 5.87509 3.98765
H 13.8699 5.9344 4.32299
H 14.8572 4.96036 3.76031
O 14.3335 3.1668 3.50075
H 13.6423 3.54756 4.06398
H 13.872 2.86559 2.64083
O 11.2086 2.72614 6.6677
H 11.0049 3.00603 7.52454
H 11.701 1.91723 6.84904
O 8.75345 2.63262 1.45919
H 9.35525 2.04198 1.03656
H 7.99123 2.80565 0.849401
O 15.3992 41.4318 -0.194718
H 16.2299 41.8619 0.122154
H 15.6028 41.2684 44.0992
O 15.5858 1.29435 5.2143
H 14.9694 1.81925 4.677
H 16.0777 1.97032 5.66419
O 9.72932 4.29529 3.52395
H 9.14019 4.04256 4.2371
H 9.46735 3.65121 2.80943
O 13.1881 2.19974 1.3063
H 13.0268 2.90548 0.688608
H 12.5013 1.5448 1.10456
O 11.2405 0.351563 0.684797
H 11.1115 44.195 44.962
H 11.1004 43.6066 1.0755
O 13.52 40.5404 1.4678
H 14.2337 40.4474 2.06714
H 14.0498 40.6875 0.68418
O 17.7586 0.562679 3.42221
H 17.999 1.51269 3.36077
H 17.1432 0.608636 4.15801
O 14.6292 43.4724 7.41165
H 15.1747 42.6693 7.46148
H 15.0065 44.0027 6.66501
O 12.2737 4.57116 4.51898
H 12.065 4.39202 5.41409
H 11.4032 4.3764 4.0393
O 12.1307 0.400969 7.74998
H 12.9404 44.0211 7.50509
H 12.1397 0.506112 8.71368
O 18.3459 3.21258 2.83193
H 18.1273 3.71684 3.63506
H 17.4808 3.33553 2.32047
O 16.1902 11.46 4.52929
H 15.5429 11.5371 5.16567
H 15.8731 10.6807 4.0311
O 20.9214 5.941 3.14332
H 21.1462 5.55877 2.27612
H 20.0389 5.58229 3.3416
O 21.6592 6.99947 5.43762
H 21.8526 7.88764 5.16323
H 21.5018 6.39922 4.60667
O 20.6949 44.2555 8.91032
H 21.1169 43.4401 8.65651
H 21.2591 44.453 9.67261
O 18.9858 6.34126 6.95866
H 19.176 5.82298 7.77439
H 19.8093 6.73502 6.56494
O 16.6798 13.9105 2.85159
H 16.3448 13.1893 3.38579
H 17.5423 14.0086 3.27159
O 23.0394 44.1793 10.3241
H 23.5764 0.721667 9.9141
H 23.2968 -0.0501021 11.2464
O 19.8149 4.31063 8.7727
H 20.0471 3.56036 8.14887
H 19.3586 3.77026 9.4048
O 18.0007 5.43142 4.59032
H 17.2605 5.80741 4.16559
H 18.1232 5.83528 5.48664
O 15.2687 9.28211 2.66693
H 14.9246 9.05142 1.81598
H 15.2792 8.44089 3.11346
O 14.552 15.6217 4.27823
H 15.2371 15.1372 3.79422
H 14.0879 16.2845 3.78496
O 26.5441 43.0195 7.86571
H 27.2048 43.3844 7.28461
H 26.3994 42.1473 7.43198
O 24.9657 0.899127 8.57053
H 25.476 1.73123 8.40784
H 25.5096 0.125538 8.3843
O 23.3528 6.3742 7.59408
H 22.764 5.85399 8.13471
H 22.7914 6.59528 6.839
O 20.8337 2.12018 7.28056
H 20.5993 1.83599 6.34952
H 20.9552 1.26516 7.78652
O 27.6359 41.4311 6.00355
H 27.5432 41.4114 5.07097
H 27.8026 40.5884 6.34974
O 22.3388 7.7116 41.7974
H 22.615 7.0814 41.1092
H 21.9702 8.43172 41.2801
O 21.1655 9.9303 39.5175
H 20.2133 10.034 39.4922
H 21.3987 10.8037 39.2014
O 33.4474 5.88296 3.08881
H 32.9733 5.92655 3.96836
H 33.0782 5.06744 2.73967
O 29.9515 4.21834 7.12575
H 30.0281 3.81698 8.03614
H 28.9977 4.18514 6.96185
O 31.6919 5.34377 5.13236
H 31.2024 4.48605 4.91823
H 31.3392 5.34441 6.00187
O 26.0172 40.6686 0.430758
H 26.1671 39.9058 45.0552
H 26.2936 41.2923 -0.181337
O 31.1338 2.57226 9.37085
H 30.6907 2.2558 10.1477
H 32.0615 2.63148 9.59427
O 25.5778 5.57413 6.27047
H 24.787 5.99385 6.662
H 25.616 5.862 5.33631
O 22.203 5.14094 0.684396
H 21.9044 4.53687 0.0164359
H 22.4021 5.99861 0.211057
O 23.411 7.27928 44.4948
H 23.4424 8.1257 44.9336
H 23.032 7.42449 43.5736
O 27.4674 40.5626 3.05536
H 26.925 39.8236 2.7034
H 27.2699 41.2178 2.38177
O 26.6869 44.1223 1.64511
H 26.0168 0.576385 1.33929
H 26.2439 -0.661602 2.22827
O 25.0023 19.0339 44.8393
H 25.3716 19.6126 44.2264
H 25.38 18.2336 44.5864
O 35.2794 7.81401 2.06042
H 34.773 7.16004 2.46887
H 35.9822 7.91744 2.66561
O 27.0856 3.83718 7.63444
H 26.4278 4.31163 7.11272
H 26.9149 4.16241 8.56468
    
    &END COORD
  &END SUBSYS
  &DFT
    BASIS_SET_FILE_NAME  BASIS_SET
    POTENTIAL_FILE_NAME  GTH_POTENTIALS
    &QS
      EPS_DEFAULT 1.0E-10
    &END QS
    &MGRID
      NGRIDS 4
      CUTOFF 135
      REL_CUTOFF 115
    &END MGRID
    &XC
      &XC_FUNCTIONAL PADE
      &END XC_FUNCTIONAL
    &END XC
    &SCF
      SCF_GUESS ATOMIC
      EPS_SCF 1.0E-7
      MAX_SCF 300
      &DIAGONALIZATION  ON
        ALGORITHM STANDARD
      &END DIAGONALIZATION
      &MIXING  T
        METHOD BROYDEN_MIXING
        ALPHA 0.4
        NBROYDEN 8
      &END MIXING
    &END SCF
  &END DFT
  &PRINT
    &FORCES ON
    &END FORCES
  &END PRINT
&END FORCE_EVAL
