&GLOBAL
  PROJECT H2O_bulk
  RUN_TYPE ENERGY_FORCE
  PRINT_LEVEL LOW
&END GLOBAL
&FORCE_EVAL
  METHOD Quickstep
  &SUBSYS
    &KIND H
      ELEMENT   H
      BASIS_SET DZVP-GTH-PBE
      POTENTIAL GTH-PBE-q1
    &END KIND
    &KIND O
      ELEMENT   O
      BASIS_SET DZVP-GTH-PBE
      POTENTIAL GTH-PBE-q6
    &END KIND
    &CELL
      A     46.937    0.000000000    0.000000000
      B     0.000000000    44.121    0.000000000
      C     0.000000000    0.000000000    45.182
    &END CELL
    &COORD

O 46.6488 43.5763 1.54853
H 46.3451 43.2543 2.36476
H 46.5647 0.399585 1.74524
O 5.37198 4.07229 44.0594
H 5.30961 5.04253 44.0612
H 5.54094 3.82774 43.1432
O 5.692 3.15755 1.70625
H 5.33337 2.26801 1.79568
H 5.45415 3.4803 0.850324
O 3.7443 4.78029 3.67886
H 4.18527 4.66252 4.59582
H 4.29364 4.27244 3.05947
O -0.10771 2.24128 1.98081
H 0.169591 2.53886 2.81325
H 47.1767 2.77286 1.2818
O 2.9291 7.64562 2.89609
H 3.20237 6.73748 3.01668
H 3.25756 8.16157 3.59912
O 5.73913 3.01205 41.3994
H 5.6137 2.08448 41.3193
H 6.38153 3.29071 40.6691
O 1.25822 3.60513 3.84901
H 2.19448 3.93994 3.85803
H 0.891193 3.99441 4.6098
O 1.90156 9.08438 0.753915
H 2.5011 8.66232 1.38802
H 1.30742 8.39152 0.571001
O 4.53792 8.84284 5.2764
H 5.50397 8.90408 5.29328
H 4.31498 9.47685 5.98752
O 28.2283 23.5554 35.3026
H 27.783 22.6864 35.417
H 27.7229 24.0794 35.8705
O 2.19055 42.8562 0.797847
H 2.04049 42.3186 45.2145
H 1.32078 43.0918 1.19339
O 4.34878 0.569029 1.93392
H 4.63984 43.9561 2.45559
H 3.45899 0.314998 1.55956
O 13.8939 42.6357 8.57872
H 14.1465 42.0762 9.33637
H 14.716 42.8544 8.1044
O 5.0632 5.1296 6.0825
H 5.07465 4.44089 6.72735
H 5.99113 5.19473 5.85878
O 41.9173 28.56 29.0344
H 41.0185 28.8227 29.2982
H 42.0807 27.8282 29.6406
O 12.3956 0.636734 2.12658
H 11.5033 0.408452 1.94749
H 12.6645 43.9272 2.5088
O 10.1814 5.37471 44.2765
H 9.66418 5.90296 43.685
H 10.8102 4.98336 43.6763
O 15.619 5.89177 5.98706
H 15.3951 6.78438 6.17443
H 14.8044 5.46546 5.69903
O 13.3873 4.61525 5.20402
H 12.5094 5.00965 5.4253
H 13.344 4.31198 4.30427
O 7.51913 2.75403 8.40092
H 6.95087 1.97381 8.29843
H 8.36271 2.3995 8.72544
O 7.57569 4.60368 3.27243
H 8.37148 4.61125 2.73306
H 6.86885 4.18134 2.79705
O 13.2311 41.4615 5.88449
H 13.067 41.2074 6.80967
H 13.8742 42.1866 6.07693
O 14.4675 2.76055 7.18894
H 14.0308 3.2329 6.48598
H 14.8807 3.44989 7.68558
O 8.27691 4.51063 6.22198
H 7.91722 3.84035 6.88723
H 8.1664 4.13193 5.32133
O 12.7051 3.68833 2.76261
H 12.4562 2.7218 2.75144
H 11.9342 4.18099 2.44216
O 10.3587 5.2842 2.01712
H 10.4931 6.07894 2.49112
H 10.3189 5.62716 1.08262
O 11.7942 41.8775 3.14429
H 11.3626 41.0362 2.89461
H 12.1713 41.765 4.11071
O 15.3708 43.8815 6.37925
H 16.2583 43.9103 5.99735
H 15.0913 0.660271 6.40447
O 12.9092 1.08375 9.46354
H 13.1017 0.201592 9.16899
H 13.2614 1.68604 8.75702
O 11.0449 5.63071 6.03567
H 10.4319 6.31468 5.76045
H 10.465 4.95973 6.41756
O 10.5023 2.1917 10.1737
H 11.3571 1.87292 9.85425
H 10.7258 2.7323 10.9217
O 17.7306 0.249084 5.18807
H 18.1824 1.11583 5.34854
H 18.3647 43.6814 5.463
O 19.3004 5.71931 44.0952
H 20.0217 5.08595 44.1146
H 18.8229 5.48396 44.8957
O 23.0574 3.71578 2.88743
H 23.8021 4.27559 2.67549
H 22.5373 3.84222 2.10436
O 21.924 3.52724 5.26881
H 22.2251 3.79866 4.39194
H 22.292 2.62641 5.38825
O 20.8055 44.1735 7.90776
H 21.5422 0.148674 7.30677
H 20.9683 43.3485 8.36138
O 19.1617 2.81533 5.62027
H 19.3538 3.2245 6.48211
H 20.1067 2.96176 5.24727
O 19.6242 7.58436 42.0246
H 20.1304 6.9484 41.4969
H 19.3173 7.04518 42.7543
O 22.7831 0.840803 5.78703
H 23.4379 0.822371 6.59552
H 23.1005 0.164302 5.1806
O 20.0847 3.89261 8.35076
H 20.2115 3.22611 9.05361
H 19.4747 4.54701 8.69946
O 17.1786 4.57997 3.84697
H 16.6215 5.06085 4.46415
H 17.7296 4.09218 4.41431
O 17.7191 5.80452 1.40959
H 17.9566 6.43128 2.10454
H 17.3908 5.077 2.00795
O 20.942 10.1336 41.7931
H 20.696 9.3119 42.2731
H 20.0919 10.6069 41.7819
O 25.5368 43.0015 5.01984
H 26.3453 43.595 4.79933
H 25.6916 42.2002 4.53716
O 24.4003 0.447352 7.86475
H 25.1184 0.91698 8.09154
H 24.7411 43.7949 7.43935
O 22.8441 4.93653 7.62014
H 22.0513 4.5908 8.02473
H 22.6393 4.59006 6.75307
O 20.351 1.63052 10.2061
H 19.5569 1.46139 10.8076
H 20.2922 0.999623 9.49367
O 27.8666 0.40938 4.27171
H 28.2951 0.167663 3.43627
H 28.441 0.994338 4.79596
O 26.9828 8.54456 44.8167
H 27.859 8.32285 -0.256967
H 26.8499 9.13575 44.0145
O 27.3672 9.75662 42.242
H 27.3786 10.7024 42.0757
H 27.0289 9.30828 41.4812
O 30.1007 8.40842 6.46994
H 30.9007 8.40672 5.90434
H 29.8513 7.47642 6.34684
O 29.1244 2.85473 6.14696
H 29.9819 2.37805 6.29149
H 28.5345 2.60011 6.85694
O 28.8371 5.78984 5.84832
H 28.8765 4.8468 6.015
H 28.1029 6.01445 5.28411
O 27.6213 41.6811 45.0579
H 26.7971 41.3794 45.2711
H 27.7016 41.0558 44.3358
O 32.0383 1.6184 6.77563
H 32.942 1.64774 6.51696
H 32.0643 0.917963 7.43212
O 25.2088 4.2313 8.85189
H 24.4023 4.26838 8.29723
H 25.3154 5.15182 9.18303
O 25.1285 4.97615 1.43293
H 26.0998 4.98755 1.55909
H 24.7901 5.90142 1.19377
O 24.6789 7.71374 0.877944
H 24.036 8.31386 0.5822
H 25.4008 7.83373 0.242695
O 28.5354 43.8512 1.3226
H 28.3669 44.4651 0.663116
H 28.2576 43.0252 0.954057
O 25.6384 39.5518 45.0093
H 25.8886 38.7715 44.5143
H 25.0142 39.1362 0.512812
O 34.9669 31.6687 26.343
H 35.4194 32.5147 26.1672
H 35.7512 31.0517 26.3219
O 28.2552 10.2133 8.14526
H 28.8759 9.73822 7.54224
H 27.603 10.5818 7.54154
O 26.8443 2.18147 8.27298
H 26.478 3.07024 8.422
H 27.4585 2.16981 9.03106
    
    &END COORD
  &END SUBSYS
  &DFT
    BASIS_SET_FILE_NAME  BASIS_SET
    POTENTIAL_FILE_NAME  GTH_POTENTIALS
    &QS
      EPS_DEFAULT 1.0E-10
    &END QS
    &MGRID
      NGRIDS 4
      CUTOFF 135
      REL_CUTOFF 115
    &END MGRID
    &XC
      &XC_FUNCTIONAL PADE
      &END XC_FUNCTIONAL
    &END XC
    &SCF
      SCF_GUESS ATOMIC
      EPS_SCF 1.0E-7
      MAX_SCF 300
      &DIAGONALIZATION  ON
        ALGORITHM STANDARD
      &END DIAGONALIZATION
      &MIXING  T
        METHOD BROYDEN_MIXING
        ALPHA 0.4
        NBROYDEN 8
      &END MIXING
    &END SCF
  &END DFT
  &PRINT
    &FORCES ON
    &END FORCES
  &END PRINT
&END FORCE_EVAL
