&GLOBAL
  PROJECT H2O_bulk
  RUN_TYPE ENERGY_FORCE
  PRINT_LEVEL LOW
&END GLOBAL
&FORCE_EVAL
  METHOD Quickstep
  &SUBSYS
    &KIND H
      ELEMENT   H
      BASIS_SET DZVP-GTH-PBE
      POTENTIAL GTH-PBE-q1
    &END KIND
    &KIND O
      ELEMENT   O
      BASIS_SET DZVP-GTH-PBE
      POTENTIAL GTH-PBE-q6
    &END KIND
    &CELL
      A     46.937    0.000000000    0.000000000
      B     0.000000000    44.121    0.000000000
      C     0.000000000    0.000000000    45.182
    &END CELL
    &COORD

O 2.38247 3.42317 6.54405
H 1.66133 3.58247 7.21763
H 2.53154 4.30727 6.21651
O 4.60355 0.807263 43.4227
H 4.23077 1.65079 43.0271
H 5.11499 0.526936 42.6846
O 5.7538 1.17223 1.25781
H 4.90258 0.827937 1.58664
H 5.76821 1.26404 0.29853
O 5.331 4.69781 1.63202
H 6.18566 5.17841 1.47625
H 5.44818 3.73035 1.77877
O 2.77442 5.95561 5.7586
H 2.89343 6.06291 4.77049
H 3.43495 6.4562 6.14253
O 3.50281 5.76157 44.4932
H 4.1685 5.59485 -0.0394105
H 3.57358 6.68456 44.2481
O 3.62624 3.38092 43.0208
H 3.79198 4.13764 43.5786
H 2.76118 3.6223 42.5927
O 3.0296 6.39086 2.77255
H 3.68628 5.96406 2.25938
H 2.19841 6.29568 2.23249
O 7.04626 10.676 43.4036
H 7.614 10.4995 42.6802
H 6.91099 11.6365 43.2674
O 3.88646 8.75509 43.9494
H 4.71196 9.24603 43.8223
H 3.18047 9.3731 44.2779
O 9.08383 39.1297 26.2016
H 9.94894 39.5593 26.1261
H 9.3475 38.2434 26.2943
O 3.20124 1.21468 5.14403
H 3.84225 0.806892 5.75775
H 2.94872 2.07059 5.488
O 3.27734 0.176625 2.49614
H 2.52881 44.7446 2.00062
H 3.24953 0.732672 3.27602
O 18.037 42.5064 5.00385
H 18.5665 42.4113 5.80774
H 17.7668 43.4071 5.19187
O 8.2534 5.50411 2.26331
H 9.19224 5.53668 1.98593
H 8.30988 4.92567 3.0603
O 0.924143 10.4063 5.79038
H 47.9315 11.3169 5.66877
H 0.0212835 10.2269 5.40445
O 12.3108 42.3517 1.00733
H 13.2306 41.9796 1.21229
H 11.7806 41.6973 45.7082
O 10.4358 1.05176 42.6326
H 10.8244 1.70936 42.0361
H 10.4301 0.294961 41.9974
O 15.2322 6.20997 3.84029
H 14.6224 6.6483 4.38888
H 14.7397 5.34859 3.56798
O 13.9063 3.74953 3.36373
H 13.0313 3.90791 3.71429
H 13.7354 3.37039 2.49611
O 7.59163 2.32031 6.67386
H 7.35076 2.68173 7.4879
H 7.78333 1.40195 6.73002
O 8.26708 1.87277 2.06677
H 9.03854 1.29161 1.91707
H 7.41908 1.44425 1.78494
O 16.8355 40.7381 3.09431
H 17.0939 41.3015 3.82942
H 17.7305 40.6122 2.69639
O 14.2607 1.74505 5.83996
H 14.339 2.47167 5.20996
H 14.0617 2.17938 6.66619
O 8.78056 3.59018 4.4541
H 8.11688 3.52156 5.17837
H 8.53741 2.80498 3.90394
O 13.4429 2.57933 0.863737
H 14.0051 2.07149 0.332544
H 12.7102 1.99628 0.78322
O 11.2013 0.820132 0.584419
H 10.7282 0.778003 44.9867
H 11.544 -0.0647494 0.664421
O 14.4248 40.8766 1.62519
H 14.1066 40.1016 2.10115
H 15.2133 41.0186 2.05076
O 17.3142 0.833678 5.89441
H 17.6801 1.42832 5.23015
H 16.3681 0.977742 5.92056
O 11.6237 44.6674 4.50866
H 11.615 44.1813 3.6307
H 12.4581 0.324198 4.93434
O 11.4822 4.71129 4.61949
H 11.3751 5.5196 5.13111
H 10.6539 4.25447 4.62966
O 8.98576 43.8395 6.05394
H 9.84779 -0.103359 5.67917
H 8.68322 43.2347 5.36927
O 18.601 2.79186 4.33967
H 18.5306 3.72508 4.20724
H 18.665 2.40607 3.42743
O 18.219 10.6483 1.15913
H 19.1632 10.5139 1.46759
H 17.819 9.82271 1.38563
O 23.6466 6.54621 3.10099
H 23.1557 6.39552 2.32844
H 23.9074 5.67847 3.35464
O 22.8487 7.34553 5.70112
H 22.6986 8.2571 5.89188
H 22.7857 7.2457 4.70037
O 21.4149 0.011431 8.96275
H 22.0201 43.9337 8.2702
H 21.9973 0.122011 9.70709
O 20.0727 6.07532 6.23474
H 20.0978 5.33666 6.80725
H 20.9669 6.42408 6.28566
O 16.6125 12.5131 2.00941
H 16.0098 12.9486 1.43778
H 17.2186 11.8632 1.58309
O 24.0378 44.0935 10.6908
H 24.7147 44.25 10.0161
H 24.2332 -0.831029 11.1503
O 19.357 4.07237 8.2999
H 19.3578 3.11963 8.12251
H 19.0956 4.05492 9.23884
O 18.3061 5.93837 4.06181
H 17.4195 5.88683 4.43524
H 18.8997 6.10477 4.75968
O 17.2003 7.98685 2.07517
H 17.7069 7.29103 2.47615
H 16.3318 7.78665 2.44597
O 15.8223 14.8382 3.15316
H 16.3977 14.0827 2.94039
H 15.8814 15.3753 2.36241
O 27.2434 41.7319 7.80167
H 27.3011 41.3812 6.89629
H 27.4405 40.9885 8.32071
O 26.588 44.1892 9.00046
H 26.646 0.773847 8.39207
H 26.7725 43.4336 8.48207
O 25.4438 7.00217 7.18242
H 25.9412 6.48365 6.5194
H 24.5798 7.1724 6.70936
O 18.9976 1.4393 8.71686
H 18.4975 0.964682 8.08821
H 19.8859 1.00274 8.70713
O 28.7635 40.5468 5.27145
H 28.4925 40.4296 4.30328
H 29.4151 39.8144 5.47404
O 22.5124 7.5606 42.0068
H 21.8377 7.6375 41.3729
H 22.9043 8.48364 41.9945
O 23.1825 10.1158 41.9952
H 23.4219 10.7053 41.2214
H 22.8007 10.8105 42.6386
O 31.7388 6.74741 4.11094
H 30.9918 6.40749 4.65768
H 32.0317 6.0838 3.47865
O 29.8197 3.53294 7.45899
H 30.7156 3.38438 7.80687
H 29.2162 3.54188 8.19289
O 29.8183 5.50143 5.55492
H 29.8625 4.77937 6.20099
H 29.2323 6.16254 5.79175
O 25.8558 43.0108 1.1009
H 25.0876 43.2218 0.401745
H 26.6076 -0.784493 0.658369
O 32.597 2.63697 8.25358
H 33.0083 3.19608 8.9195
H 33.3409 2.34656 7.73955
O 25.3686 4.86257 9.1191
H 25.2521 5.67 8.57664
H 24.9702 4.99217 9.98167
O 22.7148 5.85927 0.538645
H 21.9238 6.0408 45.2951
H 23.3316 5.63273 45.0059
O 23.9222 5.52194 43.2862
H 24.5833 5.10485 42.7357
H 23.4541 6.17077 42.7624
O 27.722 40.6298 2.3379
H 27.4379 41.5176 2.35192
H 27.041 40.0822 1.9242
O 23.6624 43.1046 44.3574
H 23.3123 44.0358 44.2031
H 22.8748 42.6062 44.7087
O 27.7387 22.527 39.6987
H 28.3254 23.0311 39.1363
H 28.3382 21.8948 40.1114
O 31.4173 9.24902 2.58059
H 31.7499 8.78425 3.31468
H 31.1568 8.48165 2.01798
O 27.6126 3.42836 9.03401
H 26.8009 3.95269 9.08244
H 27.7583 3.17471 9.99778
    
    &END COORD
  &END SUBSYS
  &DFT
    BASIS_SET_FILE_NAME  BASIS_SET
    POTENTIAL_FILE_NAME  GTH_POTENTIALS
    &QS
      EPS_DEFAULT 1.0E-10
    &END QS
    &MGRID
      NGRIDS 4
      CUTOFF 135
      REL_CUTOFF 115
    &END MGRID
    &XC
      &XC_FUNCTIONAL PADE
      &END XC_FUNCTIONAL
    &END XC
    &SCF
      SCF_GUESS ATOMIC
      EPS_SCF 1.0E-7
      MAX_SCF 300
      &DIAGONALIZATION  ON
        ALGORITHM STANDARD
      &END DIAGONALIZATION
      &MIXING  T
        METHOD BROYDEN_MIXING
        ALPHA 0.4
        NBROYDEN 8
      &END MIXING
    &END SCF
  &END DFT
  &PRINT
    &FORCES ON
    &END FORCES
  &END PRINT
&END FORCE_EVAL
