&GLOBAL
  PROJECT H2O_bulk
  RUN_TYPE ENERGY_FORCE
  PRINT_LEVEL LOW
&END GLOBAL
&FORCE_EVAL
  METHOD Quickstep
  &SUBSYS
    &KIND H
      ELEMENT   H
      BASIS_SET DZVP-GTH-PBE
      POTENTIAL GTH-PBE-q1
    &END KIND
    &KIND O
      ELEMENT   O
      BASIS_SET DZVP-GTH-PBE
      POTENTIAL GTH-PBE-q6
    &END KIND
    &CELL
      A     46.937    0.000000000    0.000000000
      B     0.000000000    44.121    0.000000000
      C     0.000000000    0.000000000    45.182
    &END CELL
    &COORD

O 2.89462 3.33182 6.40816
H 3.2594 3.69872 7.16941
H 2.90283 4.0787 5.7437
O 4.44374 1.78142 43.876
H 3.79214 2.47984 43.5381
H 4.3433 0.966952 43.3415
O 6.1195 2.19032 0.823022
H 5.47304 1.99364 1.55762
H 5.67999 1.95925 -0.0389668
O 6.04705 4.89528 0.502832
H 6.79447 5.32269 0.924399
H 6.3566 3.99302 0.5716
O 3.16274 5.68721 5.0309
H 3.87226 5.89533 4.45541
H 2.3932 6.0876 4.55386
O 3.73605 5.87889 43.8958
H 4.51099 5.67152 44.4152
H 3.95396 6.69212 43.3074
O 3.0056 3.792 42.271
H 3.16244 4.63247 42.7785
H 2.10572 3.57307 42.4888
O 4.57904 6.12609 2.74643
H 5.41981 6.61234 2.81374
H 4.66959 5.41422 2.00012
O 6.81402 8.67811 43.2712
H 7.44162 9.43633 43.1048
H 7.07626 8.39478 44.1814
O 4.02536 8.22349 42.1723
H 4.93624 8.46775 42.2512
H 3.63876 9.04884 42.3502
O 5.31227 42.2659 24.3286
H 4.42768 41.8858 24.5078
H 5.06319 43.138 24.1837
O 4.21118 0.973835 5.88455
H 3.42771 0.444996 5.80241
H 3.86248 1.85451 5.99148
O 5.29266 0.692298 3.39973
H 5.25783 -0.219028 3.29829
H 4.95535 1.03989 4.25882
O 18.2394 42.4752 3.06887
H 18.7548 41.9522 3.71137
H 17.9721 43.3499 3.43947
O 7.5514 6.01368 2.92807
H 8.40059 6.43021 2.96817
H 7.74387 5.18144 3.39596
O 2.08172 7.36622 10.342
H 2.92371 7.45952 10.0076
H 1.76756 8.20388 10.2305
O 11.3936 42.2561 2.25097
H 12.2122 41.8082 1.86896
H 10.6277 41.7292 2.53253
O 10.6672 0.360457 42.8189
H 9.93368 0.659598 42.3072
H 11.3573 0.0627216 42.2305
O 15.3627 6.53925 3.64618
H 14.4973 6.98924 3.77136
H 15.0709 5.65267 3.61694
O 13.9488 2.9453 3.64694
H 13.1612 3.32179 4.0244
H 13.6708 2.48813 2.83985
O 9.22688 2.68315 6.20083
H 8.39116 2.50286 6.69458
H 9.77129 1.8473 6.38364
O 8.58863 1.6682 2.02274
H 9.2373 1.55134 1.33153
H 7.74677 1.88362 1.60096
O 16.4665 41.7165 1.28524
H 16.9856 41.8913 2.06098
H 17.115 41.7487 0.595494
O 14.7807 0.959083 5.23542
H 14.5196 1.79668 4.74535
H 14.6396 1.1666 6.15989
O 9.34224 3.82193 3.74132
H 9.19201 3.38144 4.61858
H 9.03375 3.07012 3.22874
O 13.0626 2.1626 1.29346
H 12.8494 2.94106 0.753004
H 12.5088 1.46687 1.00936
O 10.838 0.661285 0.578152
H 10.9907 0.3312 44.8523
H 10.9562 44.0476 1.22731
O 13.9208 40.8686 1.88446
H 13.9331 39.9206 1.98253
H 14.8035 41.1794 1.66411
O 17.6624 0.549022 4.53491
H 18.1563 1.3073 4.2162
H 16.7768 0.806679 4.78595
O 12.4624 42.858 5.39986
H 12.2323 42.7615 4.48218
H 13.0999 43.5346 5.47761
O 11.9013 4.46227 4.52672
H 11.6776 4.75872 5.3907
H 10.9826 4.23411 4.08905
O 10.3159 44.6505 6.96223
H 10.9762 44.0891 6.52037
H 9.80822 44.0113 7.50428
O 18.3062 3.02182 3.26239
H 18.0265 3.80372 3.73697
H 18.5497 3.34932 2.44029
O 17.487 11.3598 2.73949
H 18.2556 11.0969 3.24129
H 17.2279 10.5332 2.26613
O 22.0158 5.51144 3.64999
H 22.678 5.31054 2.97232
H 21.2205 5.39549 3.11245
O 21.502 7.67072 5.416
H 20.841 8.12479 4.93985
H 21.754 6.9226 4.74951
O 21.1878 43.5367 9.14099
H 21.4853 42.8644 8.50666
H 21.9558 43.7271 9.64241
O 19.1355 6.51144 6.98847
H 19.3687 5.86479 7.66384
H 20.0143 6.77775 6.6558
O 16.383 13.9244 2.4625
H 16.8894 13.2298 2.82867
H 15.9327 13.5653 1.6966
O 23.6162 44.1437 10.1369
H 24.4999 0.234768 9.74938
H 23.7742 0.0655958 11.0826
O 20.2263 4.28279 8.60043
H 20.1556 3.29908 8.42316
H 19.9458 4.21658 9.53359
O 18.2146 5.66761 4.46771
H 17.3254 6.02735 4.6126
H 18.7228 5.89979 5.31311
O 17.9923 8.45981 2.44914
H 18.6625 7.78666 2.32482
H 17.2228 7.97115 2.6649
O 14.9097 15.6451 3.95171
H 15.2104 14.8407 3.47758
H 14.0498 15.3611 4.23589
O 26.2376 42.3056 7.68274
H 26.8267 41.6098 7.34753
H 25.6798 41.8224 8.35147
O 26.2439 0.404069 9.25128
H 26.5054 1.24477 8.91583
H 26.2154 43.9165 8.43989
O 23.9057 7.67352 7.05152
H 23.939 8.63834 7.11153
H 23.1425 7.48258 6.52653
O 20.3947 1.64857 7.75745
H 20.0555 1.32923 6.92387
H 20.6461 0.890744 8.27847
O 27.9721 40.9547 6.25681
H 27.7504 40.7115 5.3702
H 28.8676 41.2165 6.30543
O 22.0415 7.28371 41.579
H 21.9041 6.89408 40.655
H 22.1187 8.25758 41.4534
O 22.3035 10.4881 40.5583
H 23.178 10.9264 40.7152
H 21.7445 11.252 40.8814
O 32.7799 6.16521 3.39515
H 32.0153 6.11703 4.00264
H 33.1826 5.30039 3.46115
O 30.0483 3.66699 6.98607
H 30.7205 3.4839 7.66193
H 29.2106 3.27154 7.31256
O 30.7683 5.63686 5.21648
H 30.4869 4.72141 5.56058
H 30.2246 6.29257 5.69608
O 25.7926 41.663 0.339109
H 26.0656 40.9425 44.8718
H 25.7611 42.4687 -0.0899896
O 31.6486 2.78871 9.09415
H 32.1553 1.97769 9.15531
H 31.2911 3.00924 9.95758
O 25.6063 5.33387 7.02556
H 25.0846 6.08971 7.39236
H 25.2308 5.2836 6.167
O 22.6084 5.21028 1.16086
H 23.3012 4.66867 0.689336
H 22.5322 5.96213 0.643363
O 23.5815 6.20931 43.8646
H 24.4935 6.42633 43.5824
H 23.0662 6.37898 43.071
O 27.8161 40.566 3.13953
H 27.4304 41.2984 2.66357
H 27.353 39.7795 2.70627
O 24.9203 0.193062 0.390966
H 24.1243 0.293671 44.9471
H 24.5419 -0.295329 1.10344
O 26.3645 20.6697 42.3846
H 26.498 19.9676 42.9757
H 25.5026 20.8931 42.5489
O 33.5429 8.74389 2.29473
H 33.279 7.8419 2.57176
H 34.4029 9.0381 2.62082
O 26.9568 3.07388 8.34516
H 26.3911 3.54416 7.73382
H 27.0596 3.71403 9.0649
    
    &END COORD
  &END SUBSYS
  &DFT
    BASIS_SET_FILE_NAME  BASIS_SET
    POTENTIAL_FILE_NAME  GTH_POTENTIALS
    &QS
      EPS_DEFAULT 1.0E-10
    &END QS
    &MGRID
      NGRIDS 4
      CUTOFF 135
      REL_CUTOFF 115
    &END MGRID
    &XC
      &XC_FUNCTIONAL PADE
      &END XC_FUNCTIONAL
    &END XC
    &SCF
      SCF_GUESS ATOMIC
      EPS_SCF 1.0E-7
      MAX_SCF 300
      &DIAGONALIZATION  ON
        ALGORITHM STANDARD
      &END DIAGONALIZATION
      &MIXING  T
        METHOD BROYDEN_MIXING
        ALPHA 0.4
        NBROYDEN 8
      &END MIXING
    &END SCF
  &END DFT
  &PRINT
    &FORCES ON
    &END FORCES
  &END PRINT
&END FORCE_EVAL
