&GLOBAL
  PROJECT H2O_bulk
  RUN_TYPE ENERGY_FORCE
  PRINT_LEVEL LOW
&END GLOBAL
&FORCE_EVAL
  METHOD Quickstep
  &SUBSYS
    &KIND H
      ELEMENT   H
      BASIS_SET DZVP-GTH-PBE
      POTENTIAL GTH-PBE-q1
    &END KIND
    &KIND O
      ELEMENT   O
      BASIS_SET DZVP-GTH-PBE
      POTENTIAL GTH-PBE-q6
    &END KIND
    &CELL
      A     46.937    0.000000000    0.000000000
      B     0.000000000    44.121    0.000000000
      C     0.000000000    0.000000000    45.182
    &END CELL
    &COORD

O 3.40704 3.20519 7.14687
H 3.45822 3.38043 8.11312
H 3.99342 3.83432 6.71169
O 5.68231 1.28853 43.3899
H 4.95344 1.72084 42.8748
H 5.65021 0.387487 43.1018
O 6.13514 2.06438 0.905727
H 5.77862 1.32591 1.45428
H 5.9676 1.79849 45.1765
O 4.61268 4.43617 1.42132
H 5.28837 3.6977 1.34792
H 3.89365 3.90034 1.77805
O 5.11246 5.08162 5.88599
H 5.09034 5.45308 5.02658
H 5.62883 5.70342 6.43261
O 3.96211 5.31034 40.1091
H 4.05711 6.23963 40.3271
H 4.61705 5.26191 39.3813
O 4.013 2.91721 41.98
H 4.23034 3.76798 41.5117
H 3.04293 2.96193 42.0386
O 5.24564 6.29719 3.42717
H 6.10982 6.69408 3.32786
H 5.15311 5.53271 2.7499
O 7.86023 7.23855 39.5369
H 7.86658 7.68286 40.3343
H 8.24974 7.85734 38.917
O 6.2857 5.52208 38.2723
H 7.14195 5.77725 38.5137
H 6.29902 4.77795 37.6771
O 40.8822 7.33077 19.0783
H 41.6938 7.41837 18.6491
H 40.851 6.35266 19.156
O 3.47928 1.12732 4.79343
H 3.33545 2.03555 5.04709
H 3.41552 0.637647 5.62966
O 5.15813 0.302101 2.76447
H 5.99979 44.0644 3.07379
H 4.55976 0.654134 3.48261
O 17.599 41.6345 42.9798
H 17.5897 41.3133 42.0675
H 17.6494 42.5832 43.0072
O 8.30275 7.20559 4.20088
H 8.59538 7.87809 4.85521
H 8.73201 6.38578 4.46207
O 5.93013 0.396121 25.0146
H 6.38365 1.28003 24.7333
H 4.9796 0.55104 24.6468
O 11.5266 42.6395 1.14636
H 12.1209 41.9453 0.851512
H 11.6544 42.5527 2.09802
O 10.4164 1.76376 42.6829
H 10.8699 2.16466 41.9548
H 9.48204 1.69568 42.4503
O 13.6125 5.93844 4.45178
H 13.0519 5.27504 4.95048
H 13.4288 5.57483 3.59876
O 14.3628 3.52984 3.26218
H 13.6882 3.01348 3.83365
H 14.1745 3.38468 2.29453
O 12.8328 3.8495 8.31753
H 12.7934 4.40418 9.08935
H 13.7691 3.75198 8.14428
O 8.61425 1.85943 1.94115
H 9.33539 1.53715 1.34329
H 7.80856 2.05551 1.41451
O 16.3206 40.585 45.182
H 16.4997 40.8246 44.275
H 16.6945 41.3766 0.444507
O 17.2185 3.31673 3.99701
H 16.2457 3.44216 3.79487
H 17.4651 4.2186 4.26161
O 9.3475 3.27535 4.27455
H 8.51189 3.08318 4.72869
H 9.19837 2.87672 3.42572
O 13.4936 2.69866 0.695254
H 13.2592 3.28226 45.1705
H 12.7244 2.10182 0.815759
O 11.1072 1.1118 0.279981
H 10.9535 1.31559 44.5202
H 11.129 0.0887066 0.428237
O 13.6136 40.861 0.232673
H 13.4055 40.0451 44.9558
H 14.573 40.9384 0.144435
O 17.5471 0.103949 43.3774
H 17.6908 0.429918 44.3022
H 17.9764 0.81739 42.8937
O 17.1841 1.83774 6.77748
H 16.8579 0.956676 6.91084
H 17.1793 1.9851 5.83592
O 12.1015 3.72087 5.20532
H 12.1483 3.4693 6.10355
H 11.2222 3.52958 4.90249
O 15.905 3.95834 8.09044
H 16.3018 3.23129 7.63728
H 16.4885 4.68799 7.96181
O 17.9957 0.811114 1.04388
H 18.125 1.54122 1.60436
H 18.0773 0.0386073 1.62453
O 12.2131 11.4875 4.08386
H 12.4991 10.5942 4.439
H 11.3423 11.4455 3.76651
O 18.8092 7.80313 2.84456
H 19.0338 7.71523 1.93147
H 17.9647 7.34956 2.95242
O 20.5493 7.80228 4.83667
H 20.5804 8.72689 5.0505
H 19.8865 7.79504 4.02724
O 21.6299 0.117973 9.25676
H 21.4349 44.0469 10.1909
H 22.5879 0.284459 9.27941
O 18.2842 7.21998 6.66868
H 18.5627 6.42829 7.12284
H 19.06 7.51199 6.18209
O 13.6101 13.8058 5.76324
H 13.1559 13.0912 5.27667
H 13.6041 13.423 6.65192
O 24.5987 0.754193 9.93686
H 25.3575 0.588524 9.35797
H 25.0125 1.0474 10.7316
O 20.1166 4.9541 8.00598
H 20.114 4.0648 8.3719
H 20.6312 5.43649 8.63137
O 16.924 6.14465 4.54843
H 15.9495 5.95272 4.59709
H 17.2 6.54724 5.38617
O 13.0749 8.95085 4.86841
H 14.015 8.75393 4.79095
H 12.7055 8.07722 4.92429
O 16.0453 14.8711 4.89492
H 15.2577 14.755 5.45525
H 16.5489 15.5506 5.37534
O 28.9175 42.6079 7.7003
H 29.799 42.6931 7.36271
H 28.761 41.661 7.62583
O 26.8937 0.442969 8.38525
H 26.7999 0.850971 7.49653
H 27.4493 43.8717 8.17669
O 22.7655 6.58547 6.47482
H 22.204 5.92563 6.90304
H 22.1828 6.92362 5.74837
O 19.7187 2.05771 8.56867
H 19.0667 1.60912 8.11082
H 20.3787 1.41324 8.87053
O 28.2926 39.7139 7.00402
H 27.54 39.7701 6.41834
H 28.9225 39.4019 6.38214
O 22.2472 8.49067 40.9908
H 22.8918 7.79624 40.759
H 21.5101 8.31822 40.4547
O 19.6854 7.87296 39.6534
H 19.5868 7.00642 39.3365
H 18.9708 8.42485 39.3626
O 33.8321 3.98163 3.8553
H 33.2456 4.45095 4.44335
H 33.4204 4.06464 3.01302
O 30.1314 4.65926 7.88384
H 30.5596 3.86022 8.29377
H 29.1756 4.46927 7.8408
O 32.063 5.11786 5.60428
H 31.5402 4.62427 6.29441
H 31.7889 6.07289 5.67177
O 27.3585 41.8352 1.91604
H 27.7816 42.7774 2.02817
H 27.7932 41.5801 1.17776
O 32.4 3.10276 8.33874
H 33.1172 3.48248 7.82891
H 32.7695 2.4325 8.92491
O 25.6066 6.26295 6.25075
H 24.6254 6.36233 6.2159
H 25.9706 7.14822 6.28152
O 20.0573 8.16667 -0.0365998
H 20.8186 8.67485 44.9405
H 20.1919 7.34584 44.6823
O 22.4528 9.23121 43.6533
H 22.1642 10.0977 43.5416
H 22.3456 8.8298 42.7855
O 26.6958 39.6201 4.24249
H 27.288 40.1921 3.69531
H 25.8299 39.7461 3.83965
O 29.0213 43.3202 45.1459
H 29.7151 43.7381 44.6024
H 28.3692 -0.0877997 45.1369
O 22.0792 15.2081 5.07549
H 21.5412 15.9581 5.44905
H 22.7321 15.6997 4.51513
O 36.6049 3.63058 3.7796
H 35.7131 4.06844 3.8112
H 36.5639 2.92036 4.33736
O 27.2731 4.28991 7.75744
H 26.8229 4.91098 7.19892
H 26.6048 3.62822 8.10085
    
    &END COORD
  &END SUBSYS
  &DFT
    BASIS_SET_FILE_NAME  BASIS_SET
    POTENTIAL_FILE_NAME  GTH_POTENTIALS
    &QS
      EPS_DEFAULT 1.0E-10
    &END QS
    &MGRID
      NGRIDS 4
      CUTOFF 135
      REL_CUTOFF 115
    &END MGRID
    &XC
      &XC_FUNCTIONAL PADE
      &END XC_FUNCTIONAL
    &END XC
    &SCF
      SCF_GUESS ATOMIC
      EPS_SCF 1.0E-7
      MAX_SCF 300
      &DIAGONALIZATION  ON
        ALGORITHM STANDARD
      &END DIAGONALIZATION
      &MIXING  T
        METHOD BROYDEN_MIXING
        ALPHA 0.4
        NBROYDEN 8
      &END MIXING
    &END SCF
  &END DFT
  &PRINT
    &FORCES ON
    &END FORCES
  &END PRINT
&END FORCE_EVAL
